diamond_64.xyz rattled 0.1 A

64 atoms
1 atom types

0.0 7.134 xlo xhi
0.0 7.134 ylo yhi
0.0 7.134 zlo zhi

Masses

1 12.011

Atoms # atomic

1 1 -0.002746537033 -0.082065295215 0.019623454608
2 1 0.784777887334 0.916234550861 0.818857013383
3 1 -0.053503975045 1.769763006638 1.697379911688
4 1 0.873491726732 2.618463244715 2.552189792669
5 1 1.761955497829 0.057689334934 1.730935782230
6 1 2.597899962921 0.913788084481 2.747234618491
7 1 1.799764859723 1.774492394930 0.073238641119
8 1 2.607461006124 2.764975501810 0.859721747266
9 1 -0.053131863329 -0.090116112384 3.526238564820
10 1 0.936259881824 0.822537515985 4.485677142732
11 1 0.013949473785 1.750044438545 5.346305443142
12 1 0.787403684995 2.573745313993 6.183188452564
13 1 1.797233784636 -0.009793228866 5.346525474075
14 1 2.707203252702 0.878550165274 6.184450819373
15 1 1.827432726304 1.857147976746 3.516835462144
16 1 2.677394832052 2.684107610762 4.575782599115
17 1 0.048292237888 3.536931612978 0.102038379499
18 1 0.808318155651 4.419524204357 0.936191335913
19 1 -0.073780973068 5.360025080095 1.708121121409
20 1 0.944015211307 6.300875923243 2.707558008055
21 1 1.843507602366 3.554806862570 1.832817673255
22 1 2.688162115421 4.484499400856 2.664979636260
23 1 1.874126146103 5.469832559022 0.038531177484
24 1 2.680150511095 6.125501605519 0.921959084261
25 1 0.032626510906 3.683142567893 3.637697657322
26 1 0.808225086419 4.429784208489 4.509040033177
27 1 -0.090885524389 5.358079277260 5.279663115781
28 1 0.811153998896 6.157772113866 6.304097627695
29 1 1.713334034404 3.518903136739 5.315276690627
30 1 2.757085674825 4.377302690240 6.254677160190
31 1 1.817366341829 5.430879895288 3.623350267567
32 1 2.735272283940 6.206404102903 4.443356103442
33 1 3.531877163066 0.077710505440 0.079146220793
34 1 4.402894821158 0.818050975698 0.862631523364
35 1 3.521737046736 1.792364116068 1.779426460746
36 1 4.414686973860 2.590879850677 2.639965290225
37 1 5.319026344579 0.013920534741 1.846657235105
38 1 6.286651921427 0.911771496614 2.681578229882
39 1 5.392750936490 1.668052908645 0.079132692012
40 1 6.265928448141 2.772580986827 0.959502634239
41 1 3.544983441378 -0.035707463536 3.513182538742
42 1 4.524949943137 0.767039924324 4.396942803169
43 1 3.541305657089 1.722720867554 5.294525370446
44 1 4.386532030778 2.571678246380 6.160424576456
45 1 5.246191713605 -0.016267265593 5.271456317333
46 1 6.304645865475 0.924975327558 6.149073267066
47 1 5.316988771311 1.753909259211 3.536101287906
48 1 6.164783526152 2.762415105297 4.572378774341
49 1 3.570787201832 3.566520951283 -0.081266647689
50 1 4.391555133350 4.431927057649 0.858352408343
51 1 3.626568735624 5.234090962105 1.708895634209
52 1 4.592686704575 6.256728769008 2.602567407780
53 1 5.356405595176 3.470027418284 1.789470078188
54 1 6.315509878544 4.521073116058 2.694548817182
55 1 5.307699019446 5.317907138352 -0.056687363093
56 1 6.293143521680 6.268495179499 0.951831658268
57 1 3.576746989010 3.473681114621 3.616363919355
58 1 4.573764950118 4.579842269749 4.514993016957
59 1 3.631539968665 5.393948324075 5.322477038006
60 1 4.456531584849 6.226963908671 6.141650000148
61 1 5.230636235084 3.529154657810 5.312398572654
62 1 6.306618908340 4.547844075268 6.219348295553
63 1 5.449159460255 5.452922351641 3.663613426264
64 1 6.213714927072 6.209549234599 4.411509015346
