diamond_216.xyz rattled 0.1 A

216 atoms
1 atom types

0.0 10.701 xlo xhi
0.0 10.701 ylo yhi
0.0 10.701 zlo zhi

Masses

1 12.011

Atoms # atomic

1 1 -0.002746537033 -0.082065295215 0.019623454608
2 1 0.784777887334 0.916234550861 0.818857013383
3 1 -0.053503975045 1.769763006638 1.697379911688
4 1 0.873491726732 2.618463244715 2.552189792669
5 1 1.761955497829 0.057689334934 1.730935782230
6 1 2.597899962921 0.913788084481 2.747234618491
7 1 1.799764859723 1.774492394930 0.073238641119
8 1 2.607461006124 2.764975501810 0.859721747266
9 1 -0.053131863329 -0.090116112384 3.526238564820
10 1 0.936259881824 0.822537515985 4.485677142732
11 1 0.013949473785 1.750044438545 5.346305443142
12 1 0.787403684995 2.573745313993 6.183188452564
13 1 1.797233784636 -0.009793228866 5.346525474075
14 1 2.707203252702 0.878550165274 6.184450819373
15 1 1.827432726304 1.857147976746 3.516835462144
16 1 2.677394832052 2.684107610762 4.575782599115
17 1 0.048292237888 -0.030068387022 7.236038379499
18 1 0.808318155651 0.852524204357 8.070191335913
19 1 -0.073780973068 1.793025080095 8.842121121409
20 1 0.944015211307 2.733875923243 9.841558008055
21 1 1.843507602366 -0.012193137430 8.966817673255
22 1 2.688162115421 0.917499400856 9.798979636260
23 1 1.874126146103 1.902832559022 7.172531177484
24 1 2.680150511095 2.558501605519 8.055959084261
25 1 0.032626510906 3.683142567893 0.070697657322
26 1 0.808225086419 4.429784208489 0.942040033177
27 1 -0.090885524389 5.358079277260 1.712663115781
28 1 0.811153998896 6.157772113866 2.737097627695
29 1 1.713334034404 3.518903136739 1.748276690627
30 1 2.757085674825 4.377302690240 2.687677160190
31 1 1.817366341829 5.430879895288 0.056350267567
32 1 2.735272283940 6.206404102903 0.876356103442
33 1 -0.035122836934 3.644710505440 3.646146220793
34 1 0.835894821158 4.385050975698 4.429631523364
35 1 -0.045262953264 5.359364116068 5.346426460746
36 1 0.847686973860 6.157879850677 6.206965290225
37 1 1.752026344579 3.580920534741 5.413657235105
38 1 2.719651921427 4.478771496614 6.248578229882
39 1 1.825750936490 5.235052908645 3.646132692012
40 1 2.698928448141 6.339580986827 4.526502634239
41 1 -0.022016558622 3.531292536464 7.080182538742
42 1 0.957949943137 4.334039924324 7.963942803169
43 1 -0.025694342911 5.289720867554 8.861525370446
44 1 0.819532030778 6.138678246380 9.727424576456
45 1 1.679191713605 3.550732734407 8.838456317333
46 1 2.737645865475 4.491975327558 9.716073267066
47 1 1.749988771311 5.320909259211 7.103101287906
48 1 2.597783526152 6.329415105297 8.139378774341
49 1 0.003787201832 7.133520951283 -0.081266647689
50 1 0.824555133350 7.998927057649 0.858352408343
51 1 0.059568735624 8.801090962105 1.708895634209
52 1 1.025686704575 9.823728769008 2.602567407780
53 1 1.789405595176 7.037027418284 1.789470078188
54 1 2.748509878544 8.088073116058 2.694548817182
55 1 1.740699019446 8.884907138352 -0.056687363093
56 1 2.726143521680 9.835495179499 0.951831658268
57 1 0.009746989010 7.040681114621 3.616363919355
58 1 1.006764950118 8.146842269749 4.514993016957
59 1 0.064539968665 8.960948324075 5.322477038006
60 1 0.889531584849 9.793963908671 6.141650000148
61 1 1.663636235084 7.096154657810 5.312398572654
62 1 2.739618908340 8.114844075268 6.219348295553
63 1 1.882159460255 9.019922351641 3.663613426264
64 1 2.646714927072 9.776549234599 4.411509015346
65 1 -0.022565597316 7.097095802655 7.171994279488
66 1 0.939262897577 8.105883495456 8.030050325252
67 1 0.046814638568 8.998317588970 8.826438137290
68 1 0.940347240041 9.879959317510 9.904808136820
69 1 1.806889061966 7.094392778919 8.820189913668
70 1 2.715265976204 7.969871129973 9.908536293779
71 1 1.871301467796 8.869814179014 7.136565023574
72 1 2.752878921293 9.829472663127 7.977267511994
73 1 3.504874913460 -0.078468989924 0.109121219147
74 1 4.522632426406 0.853323851749 0.967106915705
75 1 3.694237298689 1.817141708547 1.729186612432
76 1 4.517469378797 2.590531290402 2.574121827631
77 1 5.430670065448 0.025867043935 1.793669599420
78 1 6.333011561011 0.891732297351 2.785441745598
79 1 5.413321760363 1.701046057466 -0.073279397727
80 1 6.187528240534 2.589873958512 0.925538033633
81 1 3.508908689054 -0.022417189449 3.493176905301
82 1 4.512821001263 0.845280474791 4.463876427294
83 1 3.596040534408 1.855495914908 5.370836354142
84 1 4.516179676869 2.668680048224 6.243998202487
85 1 5.299339617117 -0.057508446419 5.345851622477
86 1 6.157979787454 0.833559966365 6.313797330098
87 1 5.293559862443 1.766058616492 3.614163104089
88 1 6.223031514980 2.656346950210 4.454930972541
89 1 3.580769334976 0.080895595073 7.060916843421
90 1 4.476058576717 0.846978854209 7.966467984093
91 1 3.638172309751 1.815909978358 8.945021987331
92 1 4.528446808518 2.740201977266 9.780543938715
93 1 5.344188056869 0.025755686170 8.914848694487
94 1 6.308793080510 0.866580928453 9.807156907516
95 1 5.348015763606 1.890229225508 7.175058576436
96 1 6.321779596356 2.764016667661 7.981212208824
97 1 3.556573361300 3.657271946803 0.064268376679
98 1 4.385040397179 4.392921120877 0.866560057655
99 1 3.479819059931 5.292680511691 1.706470193395
100 1 4.508339839062 6.279928693435 2.766373496576
101 1 5.322704994754 3.580800836558 1.798947863038
102 1 6.153234249585 4.529734616731 2.801215936533
103 1 5.294684616160 5.427106955784 -0.007912555057
104 1 6.227706064998 6.362692530949 0.964344273897
105 1 3.527068801976 3.540077483600 3.630738151561
106 1 4.443064918868 4.410990533227 4.421431343668
107 1 3.596918227028 5.237041215610 5.358590499562
108 1 4.430896220361 6.151519906165 6.192027627828
109 1 5.387707064778 3.588574886893 5.249241348518
110 1 6.363120368827 4.511663771220 6.359694951729
111 1 5.280219248855 5.326059424469 3.454977237983
112 1 6.295913606014 6.225367809504 4.372300371861
113 1 3.510706816256 3.610430983237 7.147666985956
114 1 4.368188522959 4.380390809481 8.135154861702
115 1 3.572274395079 5.397054039309 8.833192611569
116 1 4.370426282488 6.276527134270 9.790829798159
117 1 5.274206098945 3.631150291808 8.964590441259
118 1 6.320976078314 4.371597355247 9.896603597274
119 1 5.249797616975 5.412310533811 7.127879984195
120 1 6.206275935457 6.243888063692 8.097634896814
121 1 3.509422059335 7.078628329979 -0.033483464695
122 1 4.413487123892 7.942911553016 0.838596088320
123 1 3.487377413442 8.802202959754 1.757591410816
124 1 4.426236559576 9.861586911000 2.623868686945
125 1 5.367583339972 7.061319386843 1.789594554426
126 1 6.157170281459 8.018596311239 2.562608543491
127 1 5.361997566686 8.942005615602 -0.045054620701
128 1 6.237909327704 9.865402707956 0.804048369005
129 1 3.643143738068 7.116751987157 3.563680614692
130 1 4.522163606666 7.985688925112 4.449426780431
131 1 3.576017237138 9.049347308083 5.309533465083
132 1 4.534759508653 9.830157360329 6.285335949777
133 1 5.293976321741 7.121922736031 5.260670347358
134 1 6.210425816230 7.913763883117 6.291955449637
135 1 5.308963415354 8.874807284055 3.475439834542
136 1 6.312233086370 9.840508234250 4.476255279582
137 1 3.532418976461 7.104526076798 7.086976968516
138 1 4.491767698679 7.992461567966 8.013701871647
139 1 3.471378553399 8.974305976673 8.996467419589
140 1 4.490481494824 9.764344748788 9.860498394012
141 1 5.307834263536 7.137584013403 8.810217692989
142 1 6.203575931323 8.061771205479 9.810870991275
143 1 5.281112870840 8.925450467903 7.035333396301
144 1 6.186500887160 9.751369809576 8.027966274058
145 1 7.059150621538 -0.097558910606 -0.016213077955
146 1 7.971317863318 0.918199526836 0.918261649659
147 1 7.200285016037 1.850803824663 1.835724368006
148 1 8.067886938713 2.629949894212 2.667479090825
149 1 9.007820157015 -0.062376590192 1.811302044672
150 1 9.857911519941 0.792810973338 2.771470068647
151 1 8.985243791176 1.831329094866 0.060258344695
152 1 9.857245943142 2.625091452004 0.878468766906
153 1 7.118424870251 0.081421748687 3.615428681150
154 1 8.079154964300 0.901684293361 4.517312567281
155 1 7.191478963900 1.834335517060 5.295101574107
156 1 7.929814265258 2.610871749584 6.249698195287
157 1 8.855902694214 0.056995099960 5.377753829299
158 1 9.832428001704 0.913015331787 6.315712265216
159 1 8.906980102972 1.674579165426 3.587497400414
160 1 9.830856494045 2.684866670472 4.451891542846
161 1 7.176168177861 -0.109087348756 7.166011465708
162 1 7.989680116293 0.835857849995 7.990711104439
163 1 7.203823627608 1.758635385416 8.986267498284
164 1 8.102528218821 2.671932865770 9.798366005446
165 1 8.905005092814 0.045778232540 8.939310891164
166 1 9.816072243156 0.930880185076 9.680002633904
167 1 8.824830764575 1.733933686331 7.148255561471
168 1 9.771275847592 2.672811389574 7.922411952665
169 1 7.040952542813 3.524540413158 0.023124545731
170 1 8.065980764514 4.481868391363 0.861042765686
171 1 7.171183318809 5.347369970675 1.780165220859
172 1 7.926170412540 6.334849905235 2.599938655972
173 1 8.996948207351 3.665399658191 1.690621661163
174 1 9.823187674593 4.551587078540 2.758078020330
175 1 8.909957733930 5.339439748035 -0.038701766003
176 1 9.912628435379 6.210515879507 0.895952413544
177 1 7.075079805572 3.599998212511 3.689966317331
178 1 7.936147314576 4.517759922123 4.468153170730
179 1 7.205592481923 5.383331087759 5.310456750610
180 1 8.098222939120 6.203719871285 6.154453830618
181 1 8.809728234334 3.550708601897 5.309337300100
182 1 9.789916658255 4.342349194052 6.177055359286
183 1 8.875198689075 5.443125316730 3.493542396384
184 1 9.836297158234 6.306519518930 4.352549139518
185 1 7.239503911977 3.580073463159 7.211449402620
186 1 8.004376271795 4.428746119871 8.033733086408
187 1 7.216358341157 5.375719141077 8.906707504785
188 1 8.008566320278 6.225007340524 9.729866209350
189 1 8.805092981594 3.713107248995 8.887597508013
190 1 9.898514847662 4.380638683282 9.764030962996
191 1 8.910493737561 5.301356879433 7.116103267003
192 1 9.937543242951 6.321948341105 8.098412563494
193 1 7.167628300774 7.213714977492 0.084471859668
194 1 8.057615629638 8.085265056390 0.789056376889
195 1 7.158201773690 8.906323884592 1.857262401848
196 1 8.054097552084 9.801420364060 2.569543970998
197 1 9.005688219309 7.009136184077 1.766023457489
198 1 9.771800140532 7.995523133109 2.757269740999
199 1 9.013458105282 8.898612160923 0.044432685206
200 1 9.789144298208 9.811391240491 0.898323385541
201 1 7.046007203552 7.076234562281 3.489533264227
202 1 8.096579072048 7.995937087065 4.392428090440
203 1 7.222274218042 9.015419612725 5.313536788716
204 1 7.983084012800 9.754475839152 6.180554211621
205 1 8.901595586756 7.038921507957 5.259424376143
206 1 9.742613023631 8.064176668463 6.298629371842
207 1 8.983752391521 8.887808191728 3.557638894483
208 1 9.777605228550 9.807964662732 4.425597250101
209 1 7.064128423587 7.093300499396 7.243498332512
210 1 7.948886120352 8.041296279522 8.021483931169
211 1 7.184958059810 8.875202108164 8.870920606213
212 1 7.970865649953 9.785609177349 9.808456178471
213 1 8.996421835053 7.213942885246 8.973762357253
214 1 9.705467062043 7.951897728677 9.872577406988
215 1 8.974696213869 8.928926345541 7.130651648100
216 1 9.723946197564 9.749577979142 8.088773244746
