diamond_1728.xyz rattled 0.1 A

1728 atoms
1 atom types

0.0 21.402 xlo xhi
0.0 21.402 ylo yhi
0.0 21.402 zlo zhi

Masses

1 12.011

Atoms # atomic

1 1 -0.002746537033 -0.082065295215 0.019623454608
2 1 0.784777887334 0.916234550861 0.818857013383
3 1 -0.053503975045 1.769763006638 1.697379911688
4 1 0.873491726732 2.618463244715 2.552189792669
5 1 1.761955497829 0.057689334934 1.730935782230
6 1 2.597899962921 0.913788084481 2.747234618491
7 1 1.799764859723 1.774492394930 0.073238641119
8 1 2.607461006124 2.764975501810 0.859721747266
9 1 -0.053131863329 -0.090116112384 3.526238564820
10 1 0.936259881824 0.822537515985 4.485677142732
11 1 0.013949473785 1.750044438545 5.346305443142
12 1 0.787403684995 2.573745313993 6.183188452564
13 1 1.797233784636 -0.009793228866 5.346525474075
14 1 2.707203252702 0.878550165274 6.184450819373
15 1 1.827432726304 1.857147976746 3.516835462144
16 1 2.677394832052 2.684107610762 4.575782599115
17 1 0.048292237888 -0.030068387022 7.236038379499
18 1 0.808318155651 0.852524204357 8.070191335913
19 1 -0.073780973068 1.793025080095 8.842121121409
20 1 0.944015211307 2.733875923243 9.841558008055
21 1 1.843507602366 -0.012193137430 8.966817673255
22 1 2.688162115421 0.917499400856 9.798979636260
23 1 1.874126146103 1.902832559022 7.172531177484
24 1 2.680150511095 2.558501605519 8.055959084261
25 1 0.032626510906 0.116142567893 10.771697657322
26 1 0.808225086419 0.862784208489 11.643040033177
27 1 -0.090885524389 1.791079277260 12.413663115781
28 1 0.811153998896 2.590772113866 13.438097627695
29 1 1.713334034404 -0.048096863261 12.449276690627
30 1 2.757085674825 0.810302690240 13.388677160190
31 1 1.817366341829 1.863879895288 10.757350267567
32 1 2.735272283940 2.639404102903 11.577356103442
33 1 -0.035122836934 0.077710505440 14.347146220793
34 1 0.835894821158 0.818050975698 15.130631523364
35 1 -0.045262953264 1.792364116068 16.047426460746
36 1 0.847686973860 2.590879850677 16.907965290225
37 1 1.752026344579 0.013920534741 16.114657235105
38 1 2.719651921427 0.911771496614 16.949578229882
39 1 1.825750936490 1.668052908645 14.347132692012
40 1 2.698928448141 2.772580986827 15.227502634239
41 1 -0.022016558622 -0.035707463536 17.781182538742
42 1 0.957949943137 0.767039924324 18.664942803169
43 1 -0.025694342911 1.722720867554 19.562525370446
44 1 0.819532030778 2.571678246380 20.428424576456
45 1 1.679191713605 -0.016267265593 19.539456317333
46 1 2.737645865475 0.924975327558 20.417073267066
47 1 1.749988771311 1.753909259211 17.804101287906
48 1 2.597783526152 2.762415105297 18.840378774341
49 1 0.003787201832 3.566520951283 -0.081266647689
50 1 0.824555133350 4.431927057649 0.858352408343
51 1 0.059568735624 5.234090962105 1.708895634209
52 1 1.025686704575 6.256728769008 2.602567407780
53 1 1.789405595176 3.470027418284 1.789470078188
54 1 2.748509878544 4.521073116058 2.694548817182
55 1 1.740699019446 5.317907138352 -0.056687363093
56 1 2.726143521680 6.268495179499 0.951831658268
57 1 0.009746989010 3.473681114621 3.616363919355
58 1 1.006764950118 4.579842269749 4.514993016957
59 1 0.064539968665 5.393948324075 5.322477038006
60 1 0.889531584849 6.226963908671 6.141650000148
61 1 1.663636235084 3.529154657810 5.312398572654
62 1 2.739618908340 4.547844075268 6.219348295553
63 1 1.882159460255 5.452922351641 3.663613426264
64 1 2.646714927072 6.209549234599 4.411509015346
65 1 -0.022565597316 3.530095802655 7.171994279488
66 1 0.939262897577 4.538883495456 8.030050325252
67 1 0.046814638568 5.431317588970 8.826438137290
68 1 0.940347240041 6.312959317510 9.904808136820
69 1 1.806889061966 3.527392778919 8.820189913668
70 1 2.715265976204 4.402871129973 9.908536293779
71 1 1.871301467796 5.302814179014 7.136565023574
72 1 2.752878921293 6.262472663127 7.977267511994
73 1 -0.062125086540 3.488531010076 10.810121219147
74 1 0.955632426406 4.420323851749 11.668106915705
75 1 0.127237298689 5.384141708547 12.430186612432
76 1 0.950469378797 6.157531290402 13.275121827631
77 1 1.863670065448 3.592867043935 12.494669599420
78 1 2.766011561011 4.458732297351 13.486441745598
79 1 1.846321760363 5.268046057466 10.627720602273
80 1 2.620528240534 6.156873958512 11.626538033633
81 1 -0.058091310946 3.544582810551 14.194176905301
82 1 0.945821001263 4.412280474791 15.164876427294
83 1 0.029040534408 5.422495914908 16.071836354142
84 1 0.949179676869 6.235680048224 16.944998202487
85 1 1.732339617117 3.509491553581 16.046851622477
86 1 2.590979787454 4.400559966365 17.014797330098
87 1 1.726559862443 5.333058616492 14.315163104089
88 1 2.656031514980 6.223346950210 15.155930972541
89 1 0.013769334976 3.647895595073 17.761916843421
90 1 0.909058576717 4.413978854209 18.667467984093
91 1 0.071172309751 5.382909978358 19.646021987331
92 1 0.961446808518 6.307201977266 20.481543938715
93 1 1.777188056869 3.592755686170 19.615848694487
94 1 2.741793080510 4.433580928453 20.508156907516
95 1 1.781015763606 5.457229225508 17.876058576436
96 1 2.754779596356 6.331016667661 18.682212208824
97 1 -0.010426638700 7.224271946803 0.064268376679
98 1 0.818040397179 7.959921120877 0.866560057655
99 1 -0.087180940069 8.859680511691 1.706470193395
100 1 0.941339839062 9.846928693435 2.766373496576
101 1 1.755704994754 7.147800836558 1.798947863038
102 1 2.586234249585 8.096734616731 2.801215936533
103 1 1.727684616160 8.994106955784 -0.007912555057
104 1 2.660706064998 9.929692530949 0.964344273897
105 1 -0.039931198024 7.107077483600 3.630738151561
106 1 0.876064918868 7.977990533227 4.421431343668
107 1 0.029918227028 8.804041215610 5.358590499562
108 1 0.863896220361 9.718519906165 6.192027627828
109 1 1.820707064778 7.155574886893 5.249241348518
110 1 2.796120368827 8.078663771220 6.359694951729
111 1 1.713219248855 8.893059424469 3.454977237983
112 1 2.728913606014 9.792367809504 4.372300371861
113 1 -0.056293183744 7.177430983237 7.147666985956
114 1 0.801188522959 7.947390809481 8.135154861702
115 1 0.005274395079 8.964054039309 8.833192611569
116 1 0.803426282488 9.843527134270 9.790829798159
117 1 1.707206098945 7.198150291808 8.964590441259
118 1 2.753976078314 7.938597355247 9.896603597274
119 1 1.682797616975 8.979310533811 7.127879984195
120 1 2.639275935457 9.810888063692 8.097634896814
121 1 -0.057577940665 7.078628329979 10.667516535305
122 1 0.846487123892 7.942911553016 11.539596088320
123 1 -0.079622586558 8.802202959754 12.458591410816
124 1 0.859236559576 9.861586911000 13.324868686945
125 1 1.800583339972 7.061319386843 12.490594554426
126 1 2.590170281459 8.018596311239 13.263608543491
127 1 1.794997566686 8.942005615602 10.655945379299
128 1 2.670909327704 9.865402707956 11.505048369005
129 1 0.076143738068 7.116751987157 14.264680614692
130 1 0.955163606666 7.985688925112 15.150426780431
131 1 0.009017237138 9.049347308083 16.010533465083
132 1 0.967759508653 9.830157360329 16.986335949777
133 1 1.726976321741 7.121922736031 15.961670347358
134 1 2.643425816230 7.913763883117 16.992955449637
135 1 1.741963415354 8.874807284055 14.176439834542
136 1 2.745233086370 9.840508234250 15.177255279582
137 1 -0.034581023539 7.104526076798 17.787976968516
138 1 0.924767698679 7.992461567966 18.714701871647
139 1 -0.095621446601 8.974305976673 19.697467419589
140 1 0.923481494824 9.764344748788 20.561498394012
141 1 1.740834263536 7.137584013403 19.511217692989
142 1 2.636575931323 8.061771205479 20.511870991275
143 1 1.714112870840 8.925450467903 17.736333396301
144 1 2.619500887160 9.751369809576 18.728966274058
145 1 -0.074849378462 10.603441089394 -0.016213077955
146 1 0.837317863318 11.619199526836 0.918261649659
147 1 0.066285016037 12.551803824663 1.835724368006
148 1 0.933886938713 13.330949894212 2.667479090825
149 1 1.873820157015 10.638623409808 1.811302044672
150 1 2.723911519941 11.493810973338 2.771470068647
151 1 1.851243791176 12.532329094866 0.060258344695
152 1 2.723245943142 13.326091452004 0.878468766906
153 1 -0.015575129749 10.782421748687 3.615428681150
154 1 0.945154964300 11.602684293361 4.517312567281
155 1 0.057478963900 12.535335517060 5.295101574107
156 1 0.795814265258 13.311871749584 6.249698195287
157 1 1.721902694214 10.757995099960 5.377753829299
158 1 2.698428001704 11.614015331787 6.315712265216
159 1 1.772980102972 12.375579165426 3.587497400414
160 1 2.696856494045 13.385866670472 4.451891542846
161 1 0.042168177861 10.591912651244 7.166011465708
162 1 0.855680116293 11.536857849995 7.990711104439
163 1 0.069823627608 12.459635385416 8.986267498284
164 1 0.968528218821 13.372932865770 9.798366005446
165 1 1.771005092814 10.746778232540 8.939310891164
166 1 2.682072243156 11.631880185076 9.680002633904
167 1 1.690830764575 12.434933686331 7.148255561471
168 1 2.637275847592 13.373811389574 7.922411952665
169 1 -0.093047457187 10.658540413158 10.724124545731
170 1 0.931980764514 11.615868391363 11.562042765686
171 1 0.037183318809 12.481369970675 12.481165220859
172 1 0.792170412540 13.468849905235 13.300938655972
173 1 1.862948207351 10.799399658191 12.391621661163
174 1 2.689187674593 11.685587078540 13.459078020330
175 1 1.775957733930 12.473439748035 10.662298233997
176 1 2.778628435379 13.344515879507 11.596952413544
177 1 -0.058920194428 10.733998212511 14.390966317331
178 1 0.802147314576 11.651759922123 15.169153170730
179 1 0.071592481923 12.517331087759 16.011456750610
180 1 0.964222939120 13.337719871285 16.855453830618
181 1 1.675728234334 10.684708601897 16.010337300100
182 1 2.655916658255 11.476349194052 16.878055359286
183 1 1.741198689075 12.577125316730 14.194542396384
184 1 2.702297158234 13.440519518930 15.053549139518
185 1 0.105503911977 10.714073463159 17.912449402620
186 1 0.870376271795 11.562746119871 18.734733086408
187 1 0.082358341157 12.509719141077 19.607707504785
188 1 0.874566320278 13.359007340524 20.430866209350
189 1 1.671092981594 10.847107248995 19.588597508013
190 1 2.764514847662 11.514638683282 20.465030962996
191 1 1.776493737561 12.435356879433 17.817103267003
192 1 2.803543242951 13.455948341105 18.799412563494
193 1 0.033628300774 14.347714977492 0.084471859668
194 1 0.923615629638 15.219265056390 0.789056376889
195 1 0.024201773690 16.040323884592 1.857262401848
196 1 0.920097552084 16.935420364060 2.569543970998
197 1 1.871688219309 14.143136184077 1.766023457489
198 1 2.637800140532 15.129523133109 2.757269740999
199 1 1.879458105282 16.032612160923 0.044432685206
200 1 2.655144298208 16.945391240491 0.898323385541
201 1 -0.087992796448 14.210234562281 3.489533264227
202 1 0.962579072048 15.129937087065 4.392428090440
203 1 0.088274218042 16.149419612725 5.313536788716
204 1 0.849084012800 16.888475839152 6.180554211621
205 1 1.767595586756 14.172921507957 5.259424376143
206 1 2.608613023631 15.198176668463 6.298629371842
207 1 1.849752391521 16.021808191728 3.557638894483
208 1 2.643605228550 16.941964662732 4.425597250101
209 1 -0.069871576413 14.227300499396 7.243498332512
210 1 0.814886120352 15.175296279522 8.021483931169
211 1 0.050958059810 16.009202108164 8.870920606213
212 1 0.836865649953 16.919609177349 9.808456178471
213 1 1.862421835053 14.347942885246 8.973762357253
214 1 2.571467062043 15.085897728677 9.872577406988
215 1 1.840696213869 16.062926345541 7.130651648100
216 1 2.589946197564 16.883577979142 8.088773244746
217 1 0.054938391255 14.335762814763 10.823920514379
218 1 0.859523036618 15.113068559786 11.547757837097
219 1 -0.001184148578 16.082588472343 12.594177541894
220 1 0.936904487791 16.969579753933 13.402506059554
221 1 1.772835808385 14.222480252964 12.383286901752
222 1 2.712111913600 15.120116855793 13.450660571898
223 1 1.806020125274 16.039198562326 10.605612019643
224 1 2.631941969456 16.932602879477 11.634260963463
225 1 -0.069368153173 14.199267801672 14.254913676408
226 1 0.914721334785 15.143729469485 15.104081976722
227 1 0.023212509424 15.962863017978 16.019761870249
228 1 0.863967905418 17.011120764379 17.022284737873
229 1 1.898650655807 14.235226964014 16.007457969342
230 1 2.637210416868 15.266899585965 16.986988642563
231 1 1.726442125584 15.952209066822 14.257839548943
232 1 2.712830112403 16.921885744426 15.108567714428
233 1 0.053842059768 14.377643325602 17.756735154649
234 1 0.789370884675 15.111544314069 18.735335809196
235 1 0.035325976593 16.020095717647 19.668361223424
236 1 0.940095844355 16.917251747472 20.477344427408
237 1 1.870219504478 14.200640018538 19.670651668889
238 1 2.575313602573 15.103402222633 20.564593897935
239 1 1.748248130103 16.171847536846 17.828133425891
240 1 2.628861762635 16.894159597712 18.706289386422
241 1 -0.008477189449 17.943702280737 -0.080802869205
242 1 0.870801115225 18.643930594996 0.992233850987
243 1 -0.069457164477 19.529456458317 1.692831190829
244 1 0.891398709259 20.609207901371 2.766485067487
245 1 1.896466333184 17.922501451060 1.862228749613
246 1 2.620802481975 18.672572157992 2.748676560308
247 1 1.778794458393 19.500611977557 0.034331012746
248 1 2.671169633270 20.453887893959 0.845840657927
249 1 -0.068934851548 17.721003394838 3.533584565652
250 1 0.862123392005 18.824278286495 4.368987356424
251 1 0.123584973158 19.559972986661 5.347696834182
252 1 0.947284773475 20.586452386492 6.215152186805
253 1 1.674333277170 17.815605800171 5.324125547885
254 1 2.754776613810 18.696139377489 6.192125692479
255 1 1.841091902990 19.558560171015 3.561336035951
256 1 2.699986685514 20.573528980469 4.371626546783
257 1 -0.135918002853 17.740124738653 7.217666244176
258 1 0.857781240486 18.795297270898 8.107375297794
259 1 -0.011517073386 19.570037462549 8.991887981062
260 1 0.896462056347 20.473537404714 9.813413769286
261 1 1.760352876233 17.767994605459 8.811069843187
262 1 2.736488114501 18.834400740730 9.797232388567
263 1 1.856026468505 19.524332570988 7.068851522051
264 1 2.687520271571 20.559877720122 8.123768146020
265 1 -0.014178642242 17.786190974166 10.709032346799
266 1 0.865853278746 18.834542223979 11.515279436292
267 1 0.075024674679 19.659713522664 12.565337910502
268 1 0.961921275986 20.502419776249 13.338720142185
269 1 1.745561106334 17.802614178163 12.525836464131
270 1 2.628081734272 18.670394288343 13.457927454132
271 1 1.721578532444 19.510210665160 10.610417703883
272 1 2.674504198684 20.523204590815 11.693709614176
273 1 0.099746905286 17.928080045919 14.214457033236
274 1 0.807948289511 18.653148865710 15.176436793679
275 1 0.039511154201 19.594275590583 15.976981729763
276 1 0.873584536245 20.545770779176 16.987230663752
277 1 1.832739058944 17.892394634884 16.087320354455
278 1 2.610919047498 18.794187885961 16.904253799373
279 1 1.793866751348 19.611404197487 14.306849475545
280 1 2.618798728178 20.467624385279 15.123328509378
281 1 -0.039417860081 17.925342643905 17.862640411158
282 1 0.827612843824 18.718091999121 18.871114095328
283 1 -0.015135317351 19.544385788865 19.675895498279
284 1 0.942840270418 20.618936140216 20.421174004136
285 1 1.777732751846 17.919561321249 19.700063662824
286 1 2.806702650766 18.654936103088 20.476056833173
287 1 1.719637855750 19.549434956136 17.910037575918
288 1 2.695327893107 20.606095969560 18.673291732691
289 1 3.629778335682 -0.017562348446 -0.042697505569
290 1 4.509095935212 0.989792346691 0.814868252472
291 1 3.607435963136 1.773266245994 1.760171574381
292 1 4.460845190693 2.604530236939 2.629051747490
293 1 5.313613704618 0.005138883852 1.817121864218
294 1 6.198501837971 0.800222307328 2.661726266400
295 1 5.388063868017 1.722144039924 -0.052916923246
296 1 6.175640794424 2.725111883608 0.935468636833
297 1 3.484464325706 -0.099710976507 3.554031312539
298 1 4.464937452079 0.858511099145 4.386577569672
299 1 3.468683883657 1.834150467520 5.313232514278
300 1 4.386243748903 2.646655982549 6.303003887391
301 1 5.304038397338 0.017391562841 5.334180993214
302 1 6.240436766415 0.963873644824 6.324926161113
303 1 5.361732585005 1.710820688034 3.648678119581
304 1 6.173932934173 2.599651029305 4.560475426318
305 1 3.530840280936 0.071179406239 7.130351376737
306 1 4.549337229290 0.879952497135 7.964298115856
307 1 3.462073084915 1.770373301240 8.965313578401
308 1 4.529515272473 2.620651382398 9.845737939019
309 1 5.306815794920 -0.002331357406 8.840949665225
310 1 6.181491251353 0.906010365063 9.884777677983
311 1 5.304892398859 1.798819749953 7.177358942886
312 1 6.335245204643 2.610183141025 7.919789910909
313 1 3.674240251874 0.114105496577 10.716057317112
314 1 4.360285149663 0.998363282643 11.566133976484
315 1 3.666547129426 1.843819153514 12.552213350770
316 1 4.362422249903 2.726077094368 13.333484737398
317 1 5.355794400451 0.046594435825 12.546526570437
318 1 6.183509888722 0.844077345426 13.374407586615
319 1 5.335109713663 1.751745704690 10.645770670686
320 1 6.199508479598 2.729194148145 11.694715474391
321 1 3.477300876677 0.023028723683 14.313200970967
322 1 4.339475540272 0.933485691921 15.084782613062
323 1 3.582912744053 1.780418307407 16.083268773711
324 1 4.402187398740 2.661491122987 16.959384482160
325 1 5.318848188515 -0.014195578414 16.069988429018
326 1 6.236253258724 0.743142536046 16.958499805963
327 1 5.356276069793 1.725987374677 14.332319638949
328 1 6.278779628277 2.670411158179 15.094594136871
329 1 3.557982529265 -0.083005365659 17.764686365995
330 1 4.463524231350 0.799490228780 18.706998626693
331 1 3.572243549655 1.689250358162 19.653499454433
332 1 4.389564015593 2.747769824972 20.563448337270
333 1 5.307250386545 -0.090539503795 19.626362222711
334 1 6.214083425937 0.978858875822 20.388836972661
335 1 5.432073712247 1.876244186549 17.851195348242
336 1 6.287819449682 2.596694860639 18.835270598197
337 1 3.576606753170 3.688622867690 0.096166744733
338 1 4.364739313412 4.488242114461 1.000481205734
339 1 3.511436961970 5.315924519734 1.845912013349
340 1 4.360405659858 6.282679008288 2.606768048385
341 1 5.406481580890 3.485286929023 1.779341306654
342 1 6.316411272376 4.414000688310 2.656374472784
343 1 5.352425344554 5.354915453377 -0.105321478640
344 1 6.168167207494 6.182250559393 0.971934772179
345 1 3.626477041001 3.633260460705 3.527202288842
346 1 4.519607363042 4.433074800168 4.455611946531
347 1 3.590209855024 5.325368865338 5.381469859908
348 1 4.481831324275 6.267875657219 6.320943357059
349 1 5.240533839683 3.634659701664 5.388187613195
350 1 6.244604852206 4.550173411113 6.177291993867
351 1 5.427983689502 5.360533322383 3.499535676892
352 1 6.283399218387 6.247742115576 4.426793261750
353 1 3.621302054129 3.509469360887 7.206182319420
354 1 4.413307780087 4.483168748640 8.126299779553
355 1 3.579077005006 5.380421486182 8.866791923182
356 1 4.364288833736 6.149297600606 9.709531351345
357 1 5.368896400216 3.536333144953 8.879071587032
358 1 6.331036160121 4.416328428688 9.802096528098
359 1 5.412370075156 5.237541874479 7.058027998658
360 1 6.235640494944 6.123765940441 8.014406079913
361 1 3.524395332474 3.586974353907 10.724590651487
362 1 4.400753024196 4.516174631781 11.579694582294
363 1 3.489950949477 5.437965963186 12.438730933315
364 1 4.353347616138 6.189170413887 13.408416019309
365 1 5.436139609992 3.627377546834 12.461161748228
366 1 6.187993137993 4.362971487533 13.408280522718
367 1 5.386071475299 5.327487690829 10.727451050133
368 1 6.270732147581 6.304092904137 11.612650294826
369 1 3.523791443592 3.643453224025 14.141308476415
370 1 4.458810890041 4.425734624885 15.129906331202
371 1 3.466250796014 5.427286737478 15.963165648883
372 1 4.464807971497 6.330857561545 16.880276478960
373 1 5.244242883440 3.595157963961 16.045307253025
374 1 6.306522383536 4.507600780951 16.901029174933
375 1 5.262078008258 5.326845733245 14.183220215513
376 1 6.315180154776 6.296427045934 15.197618512730
377 1 3.476729940496 3.633201525287 17.848282739164
378 1 4.448086890064 4.551795419305 18.718184367812
379 1 3.518005443134 5.262795248044 19.568440427539
380 1 4.370072422616 6.204129171420 20.577446082307
381 1 5.371060285077 3.633462772419 19.670937925476
382 1 6.190107461290 4.445029961609 20.508625824476
383 1 5.388546783391 5.346202766812 17.771496299067
384 1 6.268436067103 6.326690442262 18.660657306093
385 1 3.656628620337 7.072297721301 -0.055076549614
386 1 4.416424958564 8.067417462819 0.982668419068
387 1 3.638785299961 8.883880139308 1.843222009504
388 1 4.409862215158 9.744748620542 2.756497598807
389 1 5.393799438558 7.145392652044 1.795801466697
390 1 6.319561861947 7.984660479123 2.769710703546
391 1 5.389296071775 9.027020141212 -0.041043868173
392 1 6.313058314846 9.809285125214 0.845152776889
393 1 3.489613931545 7.139527133921 3.456085559874
394 1 4.545234605889 7.928384963091 4.359294469960
395 1 3.488151645749 9.016621977149 5.321480566563
396 1 4.393544837635 9.725284755572 6.150234867894
397 1 5.396292002897 7.141181225412 5.374392134732
398 1 6.327557272634 7.938668373606 6.246134550149
399 1 5.350778823153 8.977875475219 3.617982846640
400 1 6.291526213291 9.738029523675 4.510582433852
401 1 3.639101105697 7.235747160024 7.059095847789
402 1 4.398166142770 7.943864184910 7.955553914576
403 1 3.681148929448 8.968928583697 8.955712630630
404 1 4.562338063775 9.857138439185 9.752986387986
405 1 5.261861808050 7.041612993484 8.950703909581
406 1 6.170770587289 7.994815285920 9.782262497121
407 1 5.272207692263 8.871305563223 7.082576134167
408 1 6.303124237746 9.789234303748 7.995212988043
409 1 3.680600604314 7.146212773817 10.769097495083
410 1 4.501156271313 7.938132632059 11.633680367435
411 1 3.576263686752 8.995169427191 12.479676203418
412 1 4.501278683957 9.843084018822 13.320031991395
413 1 5.406324394455 7.040898178025 12.559021240514
414 1 6.145101852004 7.930176871466 13.302090033694
415 1 5.417300533883 8.998149670761 10.639318403866
416 1 6.255770958786 9.782169639173 11.687279569513
417 1 3.499358790254 7.118366813307 14.216961145692
418 1 4.536472458002 8.007955456547 15.236955437993
419 1 3.503793530602 8.837648868081 16.121323939903
420 1 4.491827700755 9.724265228613 16.981310434327
421 1 5.266618409528 7.190370204978 16.110212118164
422 1 6.308455746459 8.057926240156 16.908521832393
423 1 5.347066123568 8.890779771852 14.347079938230
424 1 6.163874130848 9.862916647415 15.058802906389
425 1 3.501971296579 7.088663144202 17.893006776801
426 1 4.435257005874 8.034080269301 18.826674596464
427 1 3.531495904927 8.946177982309 19.633200817096
428 1 4.507823566132 9.869491393173 20.501924236795
429 1 5.298235428870 7.114504780968 19.550217659084
430 1 6.285318484405 8.071340775532 20.578625480631
431 1 5.297767696813 8.904653666077 17.872966046957
432 1 6.260235853367 9.742999899232 18.711981814617
433 1 3.656085824607 10.654876722414 -0.055022951360
434 1 4.378400738936 11.655005092633 0.994970302684
435 1 3.489869517474 12.386159164054 1.745794796567
436 1 4.414749324607 13.361345501362 2.631789200893
437 1 5.288447424666 10.653203252295 1.853574961621
438 1 6.317241820549 11.523442363469 2.762579242301
439 1 5.273814998148 12.472988328942 0.113364447020
440 1 6.317783389659 13.433843129354 0.869186970535
441 1 3.519519776343 10.702369682558 3.508455802913
442 1 4.417498912916 11.598299862848 4.353760731122
443 1 3.550528455049 12.559866579184 5.395545030238
444 1 4.450313962005 13.408872167695 6.236266489490
445 1 5.298776585521 10.709172505870 5.338232433989
446 1 6.296297777609 11.689497337586 6.226797833857
447 1 5.367841896714 12.532901021328 3.551912280676
448 1 6.188130103509 13.414159028247 4.591311448388
449 1 3.604931441106 10.717547505800 7.188576267469
450 1 4.480468254463 11.621286494417 8.045149198965
451 1 3.563370535652 12.514901878386 8.787109112015
452 1 4.450353270359 13.406512520137 9.841866065352
453 1 5.353428480905 10.659524647866 8.889683819090
454 1 6.248731284683 11.626609805123 9.786317543913
455 1 5.387160211368 12.588887875907 7.063169775157
456 1 6.291460319694 13.431499564420 8.008879635259
457 1 3.580952852819 10.822554562147 10.619045345823
458 1 4.468589422911 11.539332242054 11.618199390310
459 1 3.687896773161 12.461834164958 12.422791589071
460 1 4.462378819327 13.394602093682 13.417377869449
461 1 5.359010032327 10.712836517777 12.507084504260
462 1 6.254720764029 11.562809640374 13.452871804290
463 1 5.278011423048 12.561060274910 10.667854752679
464 1 6.301326587508 13.277520065361 11.720105599090
465 1 3.526969240316 10.560310820988 14.277110443483
466 1 4.416723865261 11.521590317876 15.158127949679
467 1 3.564153003070 12.519520844040 16.025708980161
468 1 4.436260215376 13.315116849995 16.996570314604
469 1 5.457052073994 10.708083069062 15.986782978005
470 1 6.331581051227 11.577976321038 16.883149105294
471 1 5.260841937129 12.519709561298 14.347790162412
472 1 6.288095049047 13.326667504885 15.159850953352
473 1 3.531495121431 10.842258971672 17.848633423289
474 1 4.505346616940 11.683964481874 18.779437441877
475 1 3.576110866608 12.418625174470 19.616916012414
476 1 4.390202635850 13.486357635451 20.496158503746
477 1 5.426110466318 10.651083226875 19.567280839444
478 1 6.205017091689 11.570989023739 20.452208834901
479 1 5.233252390473 12.531282982140 17.760501758356
480 1 6.201321565418 13.363008574621 18.740939031954
481 1 3.594975134686 14.301951308465 0.041960155927
482 1 4.441533618875 15.227900641200 1.005703762066
483 1 3.498184134478 16.112223445493 1.846604559563
484 1 4.527187876303 16.888481292011 2.744273299944
485 1 5.380853954800 14.167234828388 1.685740861787
486 1 6.359306545527 15.218953707976 2.595251771680
487 1 5.273579967444 15.955964480420 -0.079985622086
488 1 6.309230174913 16.895707425237 0.759217230985
489 1 3.660720504163 14.351977709943 3.541358092686
490 1 4.529051200999 15.210332338978 4.462586062895
491 1 3.579823594917 16.140661895614 5.417545455520
492 1 4.552918963572 16.901857892101 6.279177141556
493 1 5.387244055583 14.330112037816 5.372559003108
494 1 6.302700954668 15.176767828491 6.186556955072
495 1 5.313453419567 15.974976613181 3.560578304699
496 1 6.127411104491 16.942832911982 4.409943957523
497 1 3.585438355901 14.207314491902 7.109515631858
498 1 4.571428348955 15.057318826237 8.090924682525
499 1 3.583898791511 16.067946706237 8.937908308568
500 1 4.522666237219 16.956184785518 9.765385542467
501 1 5.468647207778 14.176831426102 8.939483613158
502 1 6.306733485637 15.052598433501 9.847886238139
503 1 5.379756543734 16.109157267288 7.096770757211
504 1 6.361971058006 16.941657276414 8.033673550922
505 1 3.650283421967 14.175716029832 10.736286863320
506 1 4.486441221090 15.086813440399 11.656121572412
507 1 3.504152796299 16.051800685288 12.496700732837
508 1 4.496943578047 16.901421207446 13.371204516560
509 1 5.340849160039 14.271577441984 12.559300831849
510 1 6.221910705020 15.212087954343 13.340659050408
511 1 5.375030055349 15.959471020479 10.649938996513
512 1 6.300954571002 16.977796650801 11.654187707136
513 1 3.543109353448 14.232938349211 14.258591505460
514 1 4.507555903035 15.209894387322 15.193477100914
515 1 3.482281779632 16.078711256922 16.118606058950
516 1 4.447362983104 16.853404167026 16.914213759439
517 1 5.253315975534 14.182120788795 16.105265550882
518 1 6.248745423677 15.175800269891 17.016740857363
519 1 5.426078816984 16.070074690041 14.288201129068
520 1 6.289549813220 17.015253001710 15.187552822047
521 1 3.598229731986 14.238550308413 17.877165265200
522 1 4.441903926379 15.232496421529 18.651166925968
523 1 3.474579021618 15.971433658885 19.679403485314
524 1 4.504433742384 16.931372628010 20.486749883721
525 1 5.428689266955 14.337479609728 19.603700693257
526 1 6.186910342460 15.133489875429 20.463891901334
527 1 5.315901077375 16.041901602755 17.881828092237
528 1 6.279943864128 16.857073316666 18.780613916529
529 1 3.462451739279 17.752444595776 0.081146203426
530 1 4.458551415871 18.833615037314 0.891854998326
531 1 3.438344619680 19.597940438294 1.772714524731
532 1 4.565344840432 20.572793411353 2.634104612594
533 1 5.310237329104 17.739347189435 1.838699984937
534 1 6.184340233980 18.662922935232 2.599854002087
535 1 5.237500456053 19.643685706025 -0.092614878606
536 1 6.351217780660 20.460543377951 0.970834679738
537 1 3.480328097644 17.728148194491 3.588623917025
538 1 4.421826986723 18.752202904707 4.391139406337
539 1 3.453648511441 19.635315356790 5.342411299604
540 1 4.512049787776 20.560555925070 6.152751612514
541 1 5.371753130889 17.855419430071 5.323982314132
542 1 6.307365291651 18.681784783420 6.376066182964
543 1 5.391214571358 19.493394583658 3.495398383201
544 1 6.252418166456 20.584869339648 4.365833004474
545 1 3.530834179813 17.949541654581 7.052248877097
546 1 4.519209900584 18.731520404453 7.937266864104
547 1 3.532391695866 19.619724496467 8.917054629292
548 1 4.515673421874 20.420189625609 9.845993492765
549 1 5.359751239197 17.835474627506 8.957748017781
550 1 6.234625496048 18.681838106906 9.881688322980
551 1 5.417420058518 19.653633821933 7.119572308212
552 1 6.217413318450 20.413390641304 8.142245269112
553 1 3.591450340548 17.912774986660 10.695556215162
554 1 4.478194334613 18.799730539893 11.652156255217
555 1 3.612362211804 19.595001428083 12.462492613221
556 1 4.501487355638 20.499896110581 13.445832521733
557 1 5.403828296362 17.922878987617 12.542175708257
558 1 6.183189431671 18.615634960670 13.295863900602
559 1 5.377691033095 19.635289313447 10.811885335410
560 1 6.318247065401 20.386342955134 11.696627496158
561 1 3.612153943076 17.899682871565 14.315352665839
562 1 4.442695196492 18.756462378246 15.221177678940
563 1 3.582137059315 19.712032617753 16.057114189061
564 1 4.365412911674 20.550849331752 16.984154825763
565 1 5.334031519620 17.868523749296 16.128577786053
566 1 6.194995594689 18.720117750784 17.009774576131
567 1 5.322164244893 19.572096251412 14.193164323474
568 1 6.294672375221 20.568372475154 15.143928671311
569 1 3.494324576383 17.873978340156 17.919870574991
570 1 4.409372236352 18.686839205755 18.846247050418
571 1 3.653073068639 19.653943004639 19.610278515284
572 1 4.431363416653 20.439685924555 20.424191407375
573 1 5.285869004956 17.865558291333 19.595245404102
574 1 6.219847999657 18.708323908441 20.504501833364
575 1 5.292971984194 19.493572841732 17.925926897686
576 1 6.250226073276 20.407852394407 18.768059562109
577 1 7.218079629664 -0.068970810431 0.039212687868
578 1 8.015563121609 0.927036473155 0.788507381501
579 1 7.038469835074 1.897663388431 1.841803618741
580 1 8.023974116088 2.674715380129 2.580988563510
581 1 8.980036457654 0.019238596804 1.865358626397
582 1 9.864385742554 0.946454048103 2.753124370487
583 1 8.871021197319 1.712532724278 -0.015485307556
584 1 9.761926609435 2.572753994169 0.773409190672
585 1 7.171612659378 0.080467683789 3.546446926412
586 1 8.094067573106 0.957579493127 4.396255666880
587 1 7.153166446493 1.734969936623 5.291934786907
588 1 8.123811371430 2.620866100371 6.267299535767
589 1 8.929072914558 0.110562095226 5.355947077592
590 1 9.769804807201 0.853881026464 6.165864505105
591 1 8.995504677603 1.874590231392 3.511439731814
592 1 9.728061383949 2.629353078176 4.434189374217
593 1 7.246637385396 0.075584644204 7.172276860805
594 1 7.954186092001 0.985742037822 8.071417423956
595 1 7.180128011297 1.867472875441 8.832367072518
596 1 7.967450023184 2.733811659387 9.886332161565
597 1 8.985490434362 -0.036785132173 8.954397026980
598 1 9.868945139822 0.830307467461 9.792698752483
599 1 8.864579005972 1.725002293201 7.173471738406
600 1 9.782945273540 2.638222322450 7.988124961644
601 1 7.143369108960 -0.068029258009 10.745942862649
602 1 7.929032041117 0.802256726730 11.697811715307
603 1 7.064189912185 1.909037983321 12.584834941348
604 1 8.077989230792 2.623384367472 13.367938486059
605 1 8.825863885146 0.079423095779 12.544049962334
606 1 9.810598708644 0.873250308998 13.358059594783
607 1 9.010631005442 1.808174427700 10.715169420306
608 1 9.735458627262 2.602392749298 11.524695329485
609 1 7.143781824568 -0.016590712305 14.184225260765
610 1 8.104924098867 0.838606397282 15.142767614100
611 1 7.066087982125 1.742387016801 16.098723411412
612 1 7.985864571432 2.620361821595 16.947055966793
613 1 8.902979500741 0.065709155479 15.992458863651
614 1 9.934306843959 0.800268775309 17.027576119465
615 1 8.955659792470 1.736445119599 14.271249490800
616 1 9.795886380071 2.637075928313 15.117364396049
617 1 7.113486520279 0.077368778439 17.943284335450
618 1 8.106166834432 0.798561219837 18.666748314925
619 1 7.211831953201 1.682847193599 19.704588032812
620 1 8.016390324565 2.765637626164 20.427638845348
621 1 9.002043864907 -0.035275597854 19.583493355515
622 1 9.728076816107 0.956164770684 20.479581353767
623 1 8.835345025383 1.776923726214 17.908630995414
624 1 9.752487913422 2.673771699401 18.659303348746
625 1 7.060859934932 3.590035028686 0.035490788132
626 1 7.953651782979 4.343570192159 0.837697742816
627 1 7.154190133881 5.343058746894 1.753285189539
628 1 7.965304482419 6.280082533863 2.687188430867
629 1 8.959083622826 3.594491170075 1.753796118104
630 1 9.722989289681 4.509621740587 2.640405715584
631 1 8.961232474336 5.247395630488 0.058924670991
632 1 9.790739480048 6.270656295702 0.968911577057
633 1 7.116512591584 3.457157387717 3.671806652928
634 1 8.026981658427 4.551825324139 4.376726419090
635 1 7.063006094024 5.407751224793 5.312131591925
636 1 7.967252306074 6.234401494912 6.239093429774
637 1 8.799174647328 3.545925448376 5.362605607503
638 1 9.802080385043 4.380876770926 6.278523779559
639 1 8.961533974752 5.431059598281 3.538856296285
640 1 9.870313797563 6.214019424605 4.503071452038
641 1 7.034531170888 3.671323499225 7.244961736866
642 1 8.023903007257 4.474392283702 8.020135231213
643 1 7.182555789601 5.242806231088 9.003391477162
644 1 7.963069167144 6.212753465559 9.732737132090
645 1 8.889279986147 3.628228795402 8.799255210694
646 1 9.744053878214 4.486014325211 9.721896536283
647 1 8.812715959860 5.383012792019 7.184582206083
648 1 9.786082693454 6.238797908476 7.964926054706
649 1 7.213906255238 3.599150168112 10.618401364424
650 1 7.964948693158 4.495709751801 11.590294267850
651 1 7.115520567744 5.265872356368 12.455436733595
652 1 7.961616396393 6.238313066666 13.422428868911
653 1 8.866207966920 3.542306784842 12.536082674996
654 1 9.735619757793 4.516492366684 13.437120082548
655 1 8.854530899370 5.321378645582 10.745640180982
656 1 9.805864704838 6.223137414754 11.666173187226
657 1 7.167930916756 3.540510541791 14.200838727934
658 1 7.973575867261 4.439883306822 15.261704012534
659 1 7.237050659962 5.465325396497 16.089241019813
660 1 8.068791155267 6.154254984775 16.957864878855
661 1 9.006438087795 3.697313265808 16.024898289055
662 1 9.826478378068 4.476930553765 16.898198804127
663 1 8.902253894970 5.262077212635 14.229441106197
664 1 9.797529091481 6.137800197165 15.106517029819
665 1 7.218481724908 3.594174636236 17.913437471096
666 1 8.056163963238 4.531822078728 18.785191412860
667 1 7.223875945757 5.285111240983 19.656605200031
668 1 7.983680319869 6.268975544290 20.452720721768
669 1 8.885351987809 3.664035668542 19.635669376546
670 1 9.762417857749 4.472836500069 20.481260194483
671 1 9.028013083009 5.310266779162 17.826022248745
672 1 9.842132769271 6.172698741776 18.740140292192
673 1 7.254745240432 7.094685914411 -0.056974334955
674 1 8.012932375953 8.001907888312 0.805537417175
675 1 7.015341559921 8.847581599866 1.714115342674
676 1 8.014456016803 9.761675799456 2.607275868194
677 1 8.803993794687 7.129605959854 1.857661924732
678 1 9.828731580797 8.053110726623 2.689554859227
679 1 8.889858242309 8.954812897374 -0.024727223934
680 1 9.845059129080 9.858961267057 0.883739729220
681 1 7.086414868206 7.100652379191 3.493433379237
682 1 8.046943729912 7.974640723982 4.474218793789
683 1 7.036610739431 8.912192570226 5.386288652929
684 1 7.978147022788 9.818166429311 6.240589640343
685 1 8.856781886408 7.205464203770 5.300338111501
686 1 9.858842439413 7.986967006037 6.157837393631
687 1 8.991669056321 8.919464155907 3.447166282701
688 1 9.801278768704 9.815536950488 4.523975481134
689 1 7.049188969238 7.054328411666 7.206162385473
690 1 8.078426512749 7.967389621994 8.018684155071
691 1 7.134919517306 8.969993763897 8.941437906236
692 1 8.101046915065 9.868782478343 9.833901091450
693 1 8.977138753400 7.186972978484 8.944326823290
694 1 9.825230912924 8.052200721825 9.875596044504
695 1 9.020133525647 8.811213147755 7.207195905381
696 1 9.685286871189 9.859493084846 8.054020311241
697 1 7.130843877741 7.199271126580 10.720608343534
698 1 8.014521777033 8.081942525174 11.646399475305
699 1 7.148471115602 8.898783004934 12.471855647713
700 1 8.059582920766 9.858983749360 13.330698539728
701 1 8.905288850420 7.122961681328 12.469815280650
702 1 9.805984633653 8.065490156331 13.452139962114
703 1 8.932752221791 8.872439211103 10.670620097189
704 1 9.749156583831 9.731547043759 11.615450000513
705 1 7.145664416810 7.067644676354 14.355050859780
706 1 8.001918413690 8.095927450614 15.256820610429
707 1 7.185442684369 8.865643786070 16.030777154298
708 1 8.088684013654 9.695156255250 16.841298816100
709 1 8.942055155951 7.115544858708 16.132298695497
710 1 9.869451298973 8.010334091161 17.065162484286
711 1 8.969421374961 8.907472776143 14.323434516319
712 1 9.780959925792 9.791459760613 15.175060003533
713 1 7.148394583252 7.217093346051 17.886174051848
714 1 8.042946970713 7.923864054747 18.658427729018
715 1 7.125760475627 8.946658105494 19.622576845754
716 1 8.089049530077 9.921680273098 20.524649282448
717 1 8.924650205933 7.164148872961 19.701959331842
718 1 9.753546465960 7.991915032214 20.572273574700
719 1 8.890027844676 8.890673440647 17.929090549517
720 1 9.844040942091 9.798410121186 18.648951126504
721 1 7.208457825205 10.757144226697 0.060938790168
722 1 8.137705828469 11.668094346784 0.872132087934
723 1 7.090462599763 12.427445725710 1.780160167204
724 1 8.000872727272 13.315806424323 2.633122004049
725 1 8.957147678129 10.736305768852 1.775197696974
726 1 9.920504125204 11.635217666351 2.591787215551
727 1 8.880275755185 12.552549033827 -0.019734179365
728 1 9.829551385054 13.281752414823 0.874297584874
729 1 7.194962060644 10.691817957711 3.601851959939
730 1 7.996953790413 11.574063354804 4.467292151647
731 1 7.072183089232 12.506682926041 5.361493159186
732 1 8.154708218409 13.376810664016 6.210296993312
733 1 8.824350218509 10.610478355850 5.371705176105
734 1 9.713553987133 11.510654453456 6.177174467510
735 1 8.945448007864 12.532696156657 3.574002089614
736 1 9.855433274000 13.292587965412 4.358078800730
737 1 7.203660374813 10.649781569205 7.195356724864
738 1 8.015369220231 11.521383574963 7.966621260679
739 1 7.057514524126 12.549440339977 8.973795764794
740 1 7.998346465360 13.382066502397 9.761039169075
741 1 8.793420624773 10.792853459926 8.944350153741
742 1 9.885960463380 11.569342706241 9.819686729124
743 1 8.871922426901 12.411772791869 7.189267445235
744 1 9.889768006969 13.321725349474 8.094904915498
745 1 7.193971055890 10.634506229747 10.778389275515
746 1 8.166255348052 11.606905773824 11.695812566148
747 1 7.061713370868 12.510006052105 12.528559501451
748 1 7.967561755371 13.362161446226 13.456527554777
749 1 8.898845846191 10.755172858945 12.425656472627
750 1 9.745236628534 11.575518359737 13.324215735589
751 1 9.037833529254 12.442558067951 10.732468175496
752 1 9.766360509195 13.358479647679 11.584120886104
753 1 7.093192574294 10.583947875571 14.224351075696
754 1 8.113624734668 11.573466970637 15.099198577394
755 1 7.102310318291 12.413874022454 16.000282800093
756 1 7.942436715859 13.434847424901 16.881005670703
757 1 8.787395847442 10.744481635703 15.976374800847
758 1 9.766657143348 11.642206645346 16.867925663779
759 1 8.875360156946 12.560174909641 14.346839695887
760 1 9.726453760418 13.306754894239 15.201647628603
761 1 7.105408711400 10.791068511278 17.802683299610
762 1 8.118709718090 11.635398404237 18.679819468752
763 1 7.102793761220 12.433361241016 19.657987744339
764 1 7.968126541023 13.461761500974 20.530058430611
765 1 8.859927268593 10.633259747977 19.663180854704
766 1 9.755276950733 11.680007801987 20.455210827759
767 1 8.955957869732 12.480236637461 17.775013925519
768 1 9.845108676291 13.341204517543 18.740002553856
769 1 7.147236185673 14.227993131875 -0.010388264358
770 1 7.919144372595 15.082082949767 0.969139721727
771 1 7.112180391955 16.037717411074 1.693250852894
772 1 8.033075722553 16.874723370742 2.684297120697
773 1 8.900974276841 14.142320208582 1.714455927971
774 1 9.773578604574 15.107683295259 2.693132908601
775 1 8.854220401633 16.045364010040 0.076924129221
776 1 9.853823031378 17.051683952876 0.969962069543
777 1 7.024044592079 14.228370485680 3.444809663826
778 1 8.076516057591 15.212111976115 4.437807051867
779 1 7.135070532597 16.122598302109 5.404883321585
780 1 7.967994999691 16.990726781176 6.217161714378
781 1 8.922564685974 14.175556469848 5.264309351942
782 1 9.856220850895 15.180551197974 6.294790545698
783 1 8.816085261496 15.953367017175 3.498884298871
784 1 9.709783698090 16.907589684938 4.434821799321
785 1 7.040942643494 14.237040320006 7.118364431960
786 1 7.999920909443 15.221576054792 8.011098781577
787 1 7.179557430150 15.977018468842 8.905814315261
788 1 8.073427570275 16.886679884397 9.726352881542
789 1 8.986976754671 14.330276336671 8.882848384966
790 1 9.728090635714 15.252986760501 9.847936525076
791 1 8.836707568584 15.985104624227 7.061964083351
792 1 9.856380838201 16.856302782236 8.107818737824
793 1 7.165648788577 14.207930198679 10.739181232085
794 1 8.005382346316 15.224766548962 11.650135952608
795 1 7.085101238632 15.992780136850 12.546098727844
796 1 7.993206043370 17.026617852640 13.430269886489
797 1 8.970217992471 14.310847531516 12.491724751965
798 1 9.833695285868 15.076935510768 13.403532216569
799 1 8.893484528804 16.128681191951 10.813431415994
800 1 9.702049447877 16.986458963235 11.515944702449
801 1 7.169038343716 14.351927775686 14.255524497697
802 1 8.035181906755 15.259527660348 15.183880112650
803 1 7.160442299584 16.031436512605 15.982064530603
804 1 7.975655609183 16.940664858471 16.871957104834
805 1 8.914577798357 14.204836325113 16.114057133744
806 1 9.842895687488 15.106677767123 16.900207867352
807 1 8.919960278506 16.072084483611 14.332324771948
808 1 9.793250537149 16.891391252849 15.253907984093
809 1 7.026435292811 14.306376224346 17.795526958406
810 1 8.064155079249 15.183735725571 18.775017869084
811 1 7.073385027243 16.109364649685 19.616412846516
812 1 8.003258223132 16.998089946168 20.587834502560
813 1 8.826323350104 14.210005117706 19.606022870779
814 1 9.770209323507 15.099761838603 20.460523902234
815 1 8.805277919508 16.102292578884 17.839802265183
816 1 9.702511207815 16.909951737450 18.725988058487
817 1 7.113402270572 17.759325177904 -0.083967672563
818 1 7.939920721230 18.789652122452 0.960060773078
819 1 7.043477627817 19.677218302072 1.865490933453
820 1 8.004245379310 20.455633267458 2.705847984020
821 1 8.867137460455 17.747116192588 1.793997826236
822 1 9.689923216496 18.825866358153 2.688210067944
823 1 8.932697243894 19.709778466974 -0.013043737945
824 1 9.753133960760 20.499740676266 0.831218182871
825 1 7.019551512709 17.910808009611 3.676179440395
826 1 8.010506441966 18.652204726731 4.473218257754
827 1 7.195735328695 19.682859809384 5.284776151085
828 1 8.062559606466 20.558823989564 6.297131012953
829 1 8.871562251673 17.767820867916 5.458528911659
830 1 9.780645512968 18.724261605920 6.261235201151
831 1 8.903414784639 19.657795059347 3.503936500886
832 1 9.712255517279 20.514691363206 4.480334056519
833 1 7.201144889538 17.871662544319 7.228831016095
834 1 8.109780764507 18.747305007298 8.025394110955
835 1 7.053602963512 19.553386620815 8.918335549971
836 1 7.936710339591 20.571887989772 9.716540145741
837 1 8.926940724804 17.927127272251 8.818803331693
838 1 9.690856798092 18.725630426046 9.709288187189
839 1 8.952859799478 19.510253224013 7.198902120714
840 1 9.891939261225 20.555341032469 8.013245715672
841 1 7.066294429473 17.868478856045 10.716091499706
842 1 8.002957775073 18.701857027058 11.582581332343
843 1 7.160335053474 19.682498038335 12.561399452763
844 1 7.919157991934 20.439414804262 13.373538161522
845 1 8.888407741358 17.827788138370 12.395383753080
846 1 9.726868876499 18.700931653022 13.355610297210
847 1 9.035010934534 19.672824244569 10.792219011098
848 1 9.907094958294 20.599589866439 11.636957769537
849 1 7.207014704107 17.722912139855 14.331525436966
850 1 8.067659661253 18.688233888693 15.176968832727
851 1 7.251286774633 19.647809897445 16.093224724066
852 1 7.962359943569 20.481336757942 17.036671223410
853 1 8.806378365724 17.748651580097 16.087352306267
854 1 9.800966277257 18.651347915357 16.999952420032
855 1 8.848253465505 19.636650866490 14.247161828287
856 1 9.815560674161 20.526561670598 15.159533614278
857 1 7.068029367943 17.770186330902 17.914781024218
858 1 8.037479921665 18.646545038967 18.825625007605
859 1 7.046453143244 19.509463024341 19.656607930871
860 1 7.987531501251 20.520718277571 20.544217990029
861 1 8.822443778070 17.878324119458 19.517774280590
862 1 9.792232096567 18.765166036484 20.403181405124
863 1 8.909723678106 19.561741213352 17.809913605697
864 1 9.870163787159 20.533803133531 18.787597470712
865 1 10.759214603749 -0.108704677794 0.130335590556
866 1 11.649519774816 0.765031341657 0.939796395619
867 1 10.658191859670 1.702197087192 1.880627709793
868 1 11.591052041101 2.754744940369 2.624785232639
869 1 12.541217793584 -0.109553632284 1.730868174047
870 1 13.358854571633 0.818033371682 2.684825650655
871 1 12.428721180723 1.723551198453 0.032265643412
872 1 13.384811845270 2.784899558078 0.909084583906
873 1 10.770142230684 -0.002621387581 3.619909017946
874 1 11.674360106073 0.834804824863 4.519925766803
875 1 10.669801709370 1.846807896632 5.389911574067
876 1 11.682765274603 2.607285982918 6.245879590779
877 1 12.553397112680 0.096786293762 5.370009794457
878 1 13.295296204965 0.918924161435 6.200551447890
879 1 12.509113431514 1.821478783646 3.473736602300
880 1 13.480600130733 2.706431317780 4.385612678038
881 1 10.649444825479 -0.000773421314 7.199261644419
882 1 11.626256517406 0.812380554445 7.967237648253
883 1 10.601133239043 1.861796992276 8.874373479620
884 1 11.628936573300 2.630751918708 9.838422744338
885 1 12.495477696188 -0.060220306328 8.980877954829
886 1 13.400583768235 0.961395617144 9.884215579285
887 1 12.559733694653 1.705848639145 7.071722904313
888 1 13.321973064725 2.695171523203 8.095922377743
889 1 10.766633397932 -0.089902615842 10.626741127360
890 1 11.639257593364 0.922078818893 11.558822683185
891 1 10.726428207537 1.688051277366 12.589506602603
892 1 11.566724997211 2.734433315025 13.387534193930
893 1 12.378857452514 -0.074788878781 12.444082651074
894 1 13.451973951004 0.892825654491 13.258864540116
895 1 12.407188981676 1.730667034118 10.720523395552
896 1 13.353732929806 2.633662000175 11.545826032346
897 1 10.611701165766 0.020907828027 14.231860028204
898 1 11.493407940549 0.891592981723 15.241120762101
899 1 10.619749588223 1.686210483944 16.096500922393
900 1 11.537138234882 2.652485183005 16.918783335694
901 1 12.427843463729 -0.002625943032 16.075934079803
902 1 13.439416240495 1.007869467134 16.859336656222
903 1 12.507945147156 1.823919363433 14.351983350386
904 1 13.466124126533 2.688044193551 15.191738447969
905 1 10.668320458101 -0.065690217810 17.877566509446
906 1 11.677809722770 0.978571091975 18.713958360635
907 1 10.672444939916 1.829814639194 19.684761360175
908 1 11.581658728270 2.748430459464 20.461360970437
909 1 12.509972556056 -0.040316710533 19.534488914864
910 1 13.320743064532 0.881486977309 20.607512073590
911 1 12.510688621536 1.755011371889 17.751197220036
912 1 13.306350584727 2.637253818055 18.681504004803
913 1 10.657035738765 3.638912141672 -0.003014282397
914 1 11.606855897597 4.449669212089 0.845919978452
915 1 10.648175694988 5.270827725632 1.742111445551
916 1 11.534901272009 6.289664782762 2.699761640516
917 1 12.557617499842 3.536582978556 1.909539706324
918 1 13.402465597953 4.386618875033 2.590274911879
919 1 12.489578592228 5.441643128193 -0.045378210972
920 1 13.406955755184 6.196588443898 0.961253870297
921 1 10.631205782546 3.576238772180 3.660346769835
922 1 11.566166145720 4.393081387825 4.349698990504
923 1 10.629201314167 5.286285057493 5.396372446085
924 1 11.523149729140 6.244443765063 6.164762515646
925 1 12.516331285651 3.673389573989 5.355814280894
926 1 13.304565727705 4.490164701336 6.313672552161
927 1 12.509918107014 5.276368069723 3.614237885066
928 1 13.441103559280 6.215330289491 4.392362310776
929 1 10.616407929374 3.620420577899 7.204419603513
930 1 11.622490839051 4.530766177486 7.963021356726
931 1 10.648264257185 5.432929649291 8.910342874739
932 1 11.570114579501 6.291265017471 9.744860682895
933 1 12.405209931660 3.576184504940 8.832520223232
934 1 13.401512397939 4.424969719509 9.802491993570
935 1 12.515672926706 5.284632944719 7.133211880129
936 1 13.272199504789 6.315675337010 8.015450350794
937 1 10.811995499606 3.466390600188 10.745343917575
938 1 11.637016057768 4.424521383100 11.489482291222
939 1 10.612235989922 5.289971568774 12.536013904437
940 1 11.511898450861 6.318073746726 13.371333191053
941 1 12.485115532265 3.642585523476 12.558199904107
942 1 13.416528130812 4.450279937060 13.324545673487
943 1 12.544351399089 5.290534043289 10.741651621052
944 1 13.388976796554 6.306171968102 11.578769401742
945 1 10.731233720449 3.655606968149 14.251451791075
946 1 11.498704646362 4.453901465084 15.236554713412
947 1 10.599501786314 5.234817251537 16.051589786487
948 1 11.630649996942 6.303580147346 16.904230721210
949 1 12.565906941784 3.515541289724 16.094954811539
950 1 13.314960788544 4.387626419039 16.860626357040
951 1 12.363863517698 5.354537388363 14.265671652361
952 1 13.329059819232 6.344201469529 15.111859683643
953 1 10.651827682787 3.530331394122 17.890273854187
954 1 11.689244246670 4.380747431319 18.615375383856
955 1 10.781718794336 5.303839275210 19.713132732627
956 1 11.591158981447 6.284530348745 20.474782548881
957 1 12.534638312602 3.552924920727 19.580016411565
958 1 13.447220700800 4.382076503213 20.547095158994
959 1 12.388489221976 5.419322738573 17.815515959048
960 1 13.483221547586 6.134151815521 18.754686547912
961 1 10.683211837965 7.251646133003 0.079686403490
962 1 11.654021011756 7.958793636619 0.842288303841
963 1 10.630342439890 8.903567877069 1.725639673290
964 1 11.511203333507 9.824163554211 2.721720089807
965 1 12.454094816728 7.218935544967 1.724685988319
966 1 13.375650573178 7.954333226962 2.752864838718
967 1 12.565415219757 8.860935696486 0.046111815877
968 1 13.451138295550 9.752576658911 0.846944501836
969 1 10.699747281694 7.222089155262 3.490840541752
970 1 11.645235292733 8.043867137056 4.435904720164
971 1 10.718733155849 8.964937797265 5.255745659634
972 1 11.676244277684 9.745796402588 6.282174033496
973 1 12.577143022526 7.077093323621 5.406294044105
974 1 13.474914816992 7.956592635133 6.124351010886
975 1 12.403455341107 9.024116277446 3.468210538220
976 1 13.456885529273 9.726403612348 4.507443558599
977 1 10.636430038708 7.089823371334 7.177409382457
978 1 11.513235838379 8.000761404219 8.119957795297
979 1 10.734635796120 8.986508023938 9.000161100983
980 1 11.486757019042 9.793832874665 9.883371022842
981 1 12.508696845322 7.042421141348 8.924605980950
982 1 13.320776578525 7.992574164636 9.759154240078
983 1 12.364718531816 9.033022707698 7.098378814997
984 1 13.435694985907 9.730112643365 7.986211036602
985 1 10.633661510924 7.134264246783 10.626195018816
986 1 11.635785267209 7.905359279935 11.629764341172
987 1 10.674397728679 8.858478475270 12.459100799050
988 1 11.591058554239 9.889203682636 13.341280547541
989 1 12.443228723767 7.206665068347 12.579775953683
990 1 13.436521450406 8.000959661447 13.304735201841
991 1 12.459059376608 8.851299884140 10.618630487223
992 1 13.400457649173 9.782048452258 11.602611000054
993 1 10.700473963054 7.076465836205 14.272696178715
994 1 11.642113765738 8.009381596229 15.173717837491
995 1 10.727299646534 9.018086061208 16.120349979875
996 1 11.644183426517 9.802101518808 16.899939932658
997 1 12.481701096687 7.222835761141 16.042611915557
998 1 13.376882053112 8.011046191523 16.876522570237
999 1 12.548116553738 8.803112383964 14.277112856426
1000 1 13.458493510201 9.732182608534 15.155910224796
1001 1 10.674851495021 7.086308908803 17.794408054220
1002 1 11.544638208550 8.104926634829 18.776188830731
1003 1 10.796538599520 8.811435075502 19.661614223278
1004 1 11.593424094072 9.867966185204 20.513991939647
1005 1 12.467030508765 7.220564273743 19.506384337445
1006 1 13.393304541951 8.107182350083 20.518394669137
1007 1 12.522648658480 9.032568182883 17.775896500237
1008 1 13.419414739054 9.895525774314 18.748542814659
1009 1 10.758883709660 10.685474292854 0.013025087371
1010 1 11.616980543647 11.616679177936 0.887723168648
1011 1 10.742030250190 12.496043456321 1.757905202267
1012 1 11.632048162120 13.304110537727 2.781732189200
1013 1 12.470966670465 10.718960629014 1.793705849919
1014 1 13.365369702449 11.522105343487 2.635338863714
1015 1 12.571160179306 12.489205462905 -0.000240958802
1016 1 13.373885199636 13.442696182449 0.833055571169
1017 1 10.700237305145 10.744289501914 3.561404614100
1018 1 11.611449703927 11.644187948468 4.524196142645
1019 1 10.775109266754 12.411775720736 5.350642547805
1020 1 11.673107008874 13.431330495603 6.205291562180
1021 1 12.450823551295 10.686559530813 5.261631529976
1022 1 13.360008013445 11.667597699779 6.258219195099
1023 1 12.486436112420 12.413080503959 3.540061021283
1024 1 13.499788732406 13.442806466921 4.461338596819
1025 1 10.697773946601 10.768772663753 7.210729712535
1026 1 11.520176474209 11.642774697929 7.984430075894
1027 1 10.712723070822 12.406532615337 8.868916477743
1028 1 11.602538558934 13.355109580124 9.734877646628
1029 1 12.371133741209 10.710356024858 8.825531263041
1030 1 13.300771121370 11.639179215276 9.746842171803
1031 1 12.474420001128 12.446044979039 7.177941157929
1032 1 13.304208831356 13.409768990091 8.129745823249
1033 1 10.662453958216 10.663262731792 10.743919120645
1034 1 11.636210994088 11.540643516677 11.513528067505
1035 1 10.675939041794 12.468113784908 12.537772580041
1036 1 11.559289997627 13.342898518046 13.406557941174
1037 1 12.571069733049 10.667778503328 12.470504937446
1038 1 13.424965141699 11.715903984995 13.345665775271
1039 1 12.581630806770 12.528935271323 10.671939190666
1040 1 13.399128929317 13.338861115291 11.478686650633
1041 1 10.763768177194 10.671187917489 14.295788313063
1042 1 11.613070016670 11.700872984919 15.195621106645
1043 1 10.601584356558 12.488451054188 16.012826357829
1044 1 11.571781570710 13.428311205440 16.948840643632
1045 1 12.424437653089 10.789276720124 16.034395138995
1046 1 13.365350779654 11.588987791153 17.017499205521
1047 1 12.516616593914 12.580154424180 14.252272436545
1048 1 13.274950723714 13.401624801569 15.166196477598
1049 1 10.786656813318 10.765837922844 17.786164589155
1050 1 11.511607477657 11.498434526750 18.791638539795
1051 1 10.617331131274 12.416209509699 19.690192346075
1052 1 11.598310286374 13.229809928451 20.527990106950
1053 1 12.502701774365 10.709208702006 19.570325065336
1054 1 13.421314473825 11.612730260130 20.533799097056
1055 1 12.606578418310 12.554352149632 17.924494030989
1056 1 13.286815049348 13.336915280452 18.760556057114
1057 1 10.620799433878 14.338632322948 -0.023564211287
1058 1 11.569852026761 15.116846058496 0.849435650328
1059 1 10.761294453344 16.068806695241 1.788838516611
1060 1 11.569087895328 16.852669264510 2.625297190768
1061 1 12.571634442011 14.315509881439 1.861909095907
1062 1 13.333283157402 15.084388493407 2.577695204785
1063 1 12.498120061943 16.053749916348 -0.019965139592
1064 1 13.371570309758 16.956280119841 0.829827492342
1065 1 10.758332144123 14.223091628852 3.666502120628
1066 1 11.594374781890 15.080696281606 4.416626279956
1067 1 10.714766433806 16.052005223495 5.350211122042
1068 1 11.567055534442 16.865164635201 6.320974462076
1069 1 12.411890838242 14.308836607228 5.407199454789
1070 1 13.411901837722 15.186457057184 6.325461498134
1071 1 12.473647940426 16.105939387759 3.489846765684
1072 1 13.382953694778 16.994636128023 4.348620922697
1073 1 10.756056297747 14.200478000542 7.172040376324
1074 1 11.487783263753 15.227898462163 7.994064022246
1075 1 10.757315926707 16.053977176170 8.959253043153
1076 1 11.636783076102 16.915373773019 9.749440750233
1077 1 12.521922949753 14.201430480551 9.016094956881
1078 1 13.289382339312 15.060566782561 9.752321211538
1079 1 12.573953562893 16.132372999913 7.090852078881
1080 1 13.396058906936 16.878188857442 8.097781116217
1081 1 10.754637776725 14.160525638420 10.571461960942
1082 1 11.670750604037 15.052012594306 11.683648573689
1083 1 10.622822002645 16.015205595863 12.472632422215
1084 1 11.536748908864 16.927431769968 13.317942277670
1085 1 12.546056872219 14.212910022013 12.566234127458
1086 1 13.337987473489 15.228210819998 13.477490394913
1087 1 12.478397226127 15.991444028444 10.672028545433
1088 1 13.384849706030 16.924784879331 11.630191947238
1089 1 10.595435490087 14.277155805750 14.321798220081
1090 1 11.577301480152 15.172483866231 15.054407915050
1091 1 10.755747702869 15.974484656477 16.168984413150
1092 1 11.663997212800 17.051500318900 16.952775275674
1093 1 12.458970241625 14.278041230262 16.092702332343
1094 1 13.378318236503 15.212081739689 16.848451586047
1095 1 12.512683010663 16.164791758822 14.290898979692
1096 1 13.383349281573 16.870153373508 15.093632121249
1097 1 10.700285875788 14.326404732213 17.870382418540
1098 1 11.523285942371 15.217116266423 18.635501882598
1099 1 10.721885538692 16.115105427644 19.586700870089
1100 1 11.675754660911 16.979353806010 20.407442389768
1101 1 12.443116894008 14.252167174058 19.594557526433
1102 1 13.402019270619 15.083871598445 20.569092054013
1103 1 12.442694060129 15.988511475628 17.840768348478
1104 1 13.302313371346 16.954218856897 18.767270205172
1105 1 10.713971278542 17.826704490183 -0.109235301035
1106 1 11.647348021787 18.650664287342 0.942023545278
1107 1 10.660709268648 19.674185618260 1.718012102816
1108 1 11.554872250717 20.514853455179 2.598213993349
1109 1 12.411308294121 17.893873380835 1.772032934147
1110 1 13.470204383741 18.787292415858 2.684909582478
1111 1 12.431388447915 19.550533757021 0.048650292257
1112 1 13.348571747361 20.551220037360 0.889162600837
1113 1 10.615252842831 17.801947373865 3.512102072760
1114 1 11.599779670525 18.737746738488 4.423707821371
1115 1 10.615295677326 19.580025286623 5.278846158837
1116 1 11.521157221301 20.453675667878 6.332133973203
1117 1 12.498422524373 17.931802245333 5.259454557513
1118 1 13.502031919269 18.767309932247 6.290631914710
1119 1 12.477430128859 19.671630771607 3.524599251551
1120 1 13.442308937490 20.431026139551 4.391098825646
1121 1 10.604051039349 17.848384625944 7.133579498800
1122 1 11.565063205503 18.793592903978 7.925020286754
1123 1 10.700692943646 19.520251967269 8.923449173879
1124 1 11.667221408604 20.553274426293 9.704757553770
1125 1 12.432578281285 17.860031860329 9.030737012635
1126 1 13.269867860746 18.750247917924 9.854275534284
1127 1 12.568498675385 19.561900825742 7.189993893774
1128 1 13.332631195696 20.577626176062 7.934645840151
1129 1 10.823245802975 17.812630260337 10.674389096402
1130 1 11.490370418953 18.648381808599 11.622266636046
1131 1 10.749175517358 19.506829566740 12.449242692410
1132 1 11.507161010953 20.428979948501 13.324936280811
1133 1 12.434866770846 17.908443473435 12.572287240027
1134 1 13.403678053728 18.689803075190 13.359782417494
1135 1 12.517448642630 19.717941666407 10.749653972042
1136 1 13.380246716728 20.447937205849 11.631803782640
1137 1 10.781673094170 17.926616507250 14.170424261839
1138 1 11.661897511578 18.689207827130 15.093722271755
1139 1 10.776980961404 19.632280273785 16.136947043240
1140 1 11.557564018285 20.581853275222 17.047363679648
1141 1 12.569752510396 17.915632136167 16.082375563394
1142 1 13.469286752125 18.711223900238 16.962295201843
1143 1 12.592333131488 19.650323689384 14.327988266011
1144 1 13.335798114656 20.619130388102 15.122700679161
1145 1 10.787047081396 17.771491855602 17.944404975417
1146 1 11.663249759402 18.668100382588 18.786205304389
1147 1 10.636138659306 19.608685272672 19.589466480991
1148 1 11.544929867018 20.502433906208 20.588599070628
1149 1 12.527986712497 17.865445837447 19.597654461543
1150 1 13.424038053010 18.800145228090 20.538808185618
1151 1 12.573993535510 19.683758147571 17.853947502412
1152 1 13.330748596194 20.516757305894 18.778031124612
1153 1 14.206695899696 0.011193749252 0.064704408774
1154 1 15.203710735524 0.798886569459 0.878557718618
1155 1 14.169451423912 1.667565089526 1.857978710669
1156 1 15.123278670322 2.686419740946 2.678320894574
1157 1 15.989217089415 -0.037455976002 1.758887504201
1158 1 17.016584441695 0.886799966024 2.606241314895
1159 1 15.969784739403 1.730992334451 0.027914487450
1160 1 16.928473900919 2.688836515753 0.949507217621
1161 1 14.202182505571 0.018037475439 3.457736758717
1162 1 15.221166729336 0.818542087985 4.410667070007
1163 1 14.360016785247 1.720630291754 5.326168662619
1164 1 15.232841537193 2.698032572681 6.296192243391
1165 1 16.024357955605 -0.007003349455 5.419949676263
1166 1 16.939077952069 0.957513944364 6.224615946571
1167 1 16.120965487535 1.724629222540 3.577051471589
1168 1 16.826228899527 2.610749324662 4.493543116883
1169 1 14.237578128935 0.072456285482 7.077951153755
1170 1 15.085742865443 0.781994906814 8.052309214086
1171 1 14.304357572280 1.786725404252 8.855440352166
1172 1 15.262637844118 2.763752963864 9.860285448440
1173 1 15.959148780223 0.031689959114 8.909931516264
1174 1 17.008122843007 0.865347873494 9.827266522475
1175 1 16.052860606596 1.735293844330 7.160330901667
1176 1 16.994763542495 2.748946225556 7.983916360242
1177 1 14.252118460608 0.118176310404 10.624803737216
1178 1 15.221431519892 0.899812604079 11.602230434841
1179 1 14.239307447108 1.817620925670 12.560881440755
1180 1 15.192511184115 2.726377307274 13.301552900488
1181 1 15.986194298784 -0.067548846301 12.583052426686
1182 1 17.015462065065 0.779542383392 13.375941252319
1183 1 16.112179903379 1.707018570328 10.655201531464
1184 1 16.984749682828 2.694533789449 11.550571563036
1185 1 14.326253878881 -0.026042090852 14.279115342943
1186 1 15.126071602536 1.005047843364 15.173754455856
1187 1 14.339678791174 1.854831766211 16.030053951976
1188 1 15.218701120251 2.729321858337 16.989054668323
1189 1 15.985542819446 -0.055355893673 16.067417122526
1190 1 16.986606005237 0.953689106190 16.909058953116
1191 1 15.942449287065 1.790896125489 14.311344039500
1192 1 16.884826011655 2.693949292723 15.103020511240
1193 1 14.232386737452 -0.119547556771 17.803406230890
1194 1 15.156917422248 0.953402728387 18.799882737732
1195 1 14.182156620088 1.737351911618 19.734364874165
1196 1 15.097297066498 2.665334824814 20.491976970603
1197 1 15.996551353846 -0.062279231584 19.587266567155
1198 1 16.885285150784 0.998472174348 20.458219007898
1199 1 15.980711117831 1.842445426055 17.835068043371
1200 1 17.015186905068 2.680890664527 18.808080435782
1201 1 14.228974897262 3.492011072723 0.086316818689
1202 1 15.150182681453 4.466451421249 0.918019856479
1203 1 14.361454393831 5.348305986734 1.775532870235
1204 1 15.239452167415 6.234861705592 2.641204435112
1205 1 16.078177444902 3.487072139383 1.860648865694
1206 1 16.841325288065 4.537055126832 2.686172294587
1207 1 16.020774447389 5.411615917322 -0.064496557078
1208 1 16.878851938252 6.155783232199 0.908224972419
1209 1 14.312972021279 3.587371641607 3.570610109697
1210 1 15.221118654264 4.390520040495 4.427618341838
1211 1 14.279369195950 5.431181976265 5.394393644314
1212 1 15.237268213164 6.306637819745 6.207647901692
1213 1 16.164140889726 3.582649745994 5.302042280941
1214 1 16.947184952578 4.511370352699 6.242470719754
1215 1 15.954313245604 5.411683686101 3.580039062771
1216 1 16.951349929167 6.281693682890 4.538402822285
1217 1 14.182180273733 3.554629763253 7.033912831765
1218 1 15.117270603335 4.456964133443 8.044705073843
1219 1 14.318182321719 5.375887186041 8.896769056324
1220 1 15.160710247234 6.160846441928 9.843720224431
1221 1 16.122788174378 3.636648695349 8.855298502411
1222 1 16.974700122203 4.515649050429 9.777466230962
1223 1 16.144040609383 5.437480674502 7.200428260787
1224 1 17.009694595917 6.251720532489 8.110969639262
1225 1 14.170659260562 3.627621128695 10.748107825733
1226 1 15.169010576440 4.421207682639 11.538065732843
1227 1 14.268971585374 5.449277150149 12.441062239886
1228 1 15.124473078687 6.192866838998 13.304643127099
1229 1 16.122665102871 3.665714531739 12.541945587801
1230 1 16.918961688808 4.520550960007 13.286405495704
1231 1 16.100763525015 5.311021978495 10.613173024310
1232 1 16.968825390170 6.178287014545 11.532707856819
1233 1 14.207027586570 3.563867778981 14.286752644011
1234 1 15.221835500928 4.378945437682 15.223583249196
1235 1 14.187224757137 5.311241743551 16.071344403607
1236 1 15.126643414949 6.180736060684 16.952190363645
1237 1 15.970189280965 3.606921577117 15.979903779317
1238 1 17.049231735335 4.542703727457 16.957144879040
1239 1 15.963698695776 5.429845850020 14.132161217501
1240 1 16.919396896171 6.225855348305 15.056884933492
1241 1 14.268038360052 3.603472007226 17.864443600108
1242 1 15.158813337376 4.459770458024 18.750301512455
1243 1 14.225547336991 5.372292579603 19.730447919518
1244 1 15.179050222222 6.340928814153 20.486974001144
1245 1 16.160709407716 3.469583020734 19.625935218831
1246 1 16.881708498929 4.468817831170 20.515522913558
1247 1 16.076559388576 5.348096521843 17.798999707253
1248 1 16.895000577556 6.232252593853 18.687412164021
1249 1 14.215750645929 7.184751877610 -0.014283172520
1250 1 15.158074169479 7.952518775239 0.963507037755
1251 1 14.228669353874 8.856837021669 1.798695005910
1252 1 15.171449005693 9.905721128833 2.755876908922
1253 1 16.144897386035 7.236845388047 1.852495466314
1254 1 16.989893127017 7.960640805673 2.612156462208
1255 1 15.958587899585 8.959836600057 0.029674744109
1256 1 16.962132937900 9.772971425373 0.840520572071
1257 1 14.203852903691 7.128452867054 3.657317311540
1258 1 15.106900649408 7.966415202109 4.378470916855
1259 1 14.235877962743 9.015121134567 5.396977979671
1260 1 15.159303699250 9.727284108230 6.145145457007
1261 1 15.966810699476 7.204504561604 5.332681349998
1262 1 17.056435647079 8.108628642481 6.284098895713
1263 1 16.045249501047 9.024172941398 3.493929445636
1264 1 16.849272225821 9.828488798230 4.452572422503
1265 1 14.181955242767 7.091789200231 7.018294981172
1266 1 15.266258869925 8.090118958523 8.128317323135
1267 1 14.364559357884 8.887428730054 8.969730627623
1268 1 15.121336623280 9.893038338734 9.849991566984
1269 1 16.007300332349 7.034414930926 8.846462247282
1270 1 16.937387829054 8.012890031404 9.719552321289
1271 1 16.132344696294 8.972548664342 7.115056752093
1272 1 16.853963399476 9.862717680343 8.029208519612
1273 1 14.165413773170 7.124270356086 10.735202611371
1274 1 15.228717367140 8.012286534720 11.641719128164
1275 1 14.196441186198 8.863396303078 12.576942535995
1276 1 15.120913991319 9.755320809008 13.399663700833
1277 1 16.008348586872 7.074116723994 12.531528676177
1278 1 16.968480060610 8.056770673809 13.391046675962
1279 1 16.044636749302 8.803300795118 10.740127095487
1280 1 16.847416206378 9.821255345219 11.566611752551
1281 1 14.296977247623 7.161010792445 14.208619084179
1282 1 15.178482076776 8.100435921497 15.136948492506
1283 1 14.173346800765 8.986833762747 16.093076566240
1284 1 15.033503058919 9.784817533996 17.022012415736
1285 1 15.977364206039 7.085866707056 16.118054161471
1286 1 16.994092032386 8.055695944825 16.991825283991
1287 1 15.910840378802 8.834437428689 14.370827178565
1288 1 16.978043060370 9.690001950178 15.067618946003
1289 1 14.247277071295 7.248748677907 17.813128532772
1290 1 15.176679526523 8.122901234767 18.743693901935
1291 1 14.365688632706 8.868244256519 19.512101265072
1292 1 15.074769096881 9.819116897950 20.477965506752
1293 1 16.200253073515 7.162968930293 19.554893310917
1294 1 17.006258631870 7.965671919732 20.524509975596
1295 1 15.939585729604 8.954281629715 17.929750397921
1296 1 17.035520577855 9.696505704729 18.770554422065
1297 1 14.286455881501 10.756888832259 0.020182060823
1298 1 15.205030675891 11.625695156209 0.958053305972
1299 1 14.189301879435 12.412999474363 1.777994842340
1300 1 15.086118692694 13.367545556594 2.582243120024
1301 1 16.106461521108 10.603161634295 1.804411094798
1302 1 17.063432062608 11.639190287830 2.589476364544
1303 1 16.098178672016 12.427705460239 -0.009122659474
1304 1 16.872196004140 13.493011181433 0.887592200724
1305 1 14.252812651316 10.633959422410 3.562060335762
1306 1 15.259062781491 11.675563121597 4.367388958759
1307 1 14.242475083881 12.455293971974 5.397297749810
1308 1 15.099822798939 13.356517925357 6.342202070529
1309 1 16.127468180985 10.617415867910 5.269856422749
1310 1 16.850373568419 11.632649666396 6.238276833171
1311 1 16.057937139418 12.472136375713 3.558467454992
1312 1 16.993230962373 13.422976305323 4.525400063532
1313 1 14.295187634128 10.742995894680 7.199165165959
1314 1 15.206416959920 11.675914452891 7.957866879273
1315 1 14.292331136881 12.555488746639 8.953214828401
1316 1 15.199803787224 13.320127365395 9.937864707193
1317 1 16.042824244065 10.731271680334 8.893426629558
1318 1 16.948572076603 11.558788425319 9.798002040193
1319 1 15.951256806685 12.478355243255 7.242955555253
1320 1 16.965020616694 13.452095736350 8.090874662979
1321 1 14.352864660004 10.778865668310 10.739391907174
1322 1 15.122951981841 11.511863890613 11.554729277258
1323 1 14.178704624249 12.446758920214 12.567231391521
1324 1 15.242411875173 13.375641166059 13.434377210659
1325 1 16.095933236462 10.737538326464 12.553943128818
1326 1 16.940647646367 11.506745738022 13.439225927205
1327 1 15.996999444069 12.519358144107 10.671647493191
1328 1 17.003748863347 13.456253884917 11.530564023881
1329 1 14.262029383952 10.745584343801 14.257937582894
1330 1 15.248885449145 11.575719049385 15.250826928332
1331 1 14.268375216202 12.589495983221 15.971469261191
1332 1 15.125910469832 13.317830967005 17.022038884617
1333 1 15.935019459042 10.636159670072 16.107228375870
1334 1 17.051934804904 11.525198287220 16.933681239674
1335 1 16.095115155658 12.538009250405 14.328890843312
1336 1 17.029648392257 13.325455326521 15.140981620530
1337 1 14.167113767663 10.750445588266 17.782258870452
1338 1 15.126987366793 11.686279481659 18.790620164504
1339 1 14.245554325151 12.532927899503 19.652035060363
1340 1 15.214097548990 13.372065966996 20.449559650639
1341 1 15.936784325375 10.626410192528 19.581978798354
1342 1 16.876100903348 11.524284750392 20.492086792770
1343 1 16.117999986368 12.525117750971 17.792581055623
1344 1 16.985617779860 13.293572298850 18.646887510313
1345 1 14.222626166616 14.248648384371 0.074864619248
1346 1 15.160403113170 15.232176273858 0.798286103148
1347 1 14.386555021687 16.019539800881 1.852614849531
1348 1 15.067119991843 17.016348772919 2.589548509960
1349 1 16.122530256893 14.342195176011 1.846212034189
1350 1 16.907826625890 15.048402251559 2.585670684384
1351 1 16.139113326405 15.946956530905 0.029120021954
1352 1 16.971339525373 16.977585666855 0.822657482389
1353 1 14.158823198819 14.186494701114 3.684715758515
1354 1 15.131439126514 15.181902628396 4.480761544794
1355 1 14.226720326214 15.982236267493 5.236046228275
1356 1 15.220542804520 16.875318811339 6.354856519005
1357 1 16.052360970285 14.300429913442 5.296055442468
1358 1 17.027383143744 15.115811058495 6.211143744797
1359 1 16.036647245112 15.995390736438 3.516517887369
1360 1 17.031605150085 16.936087435105 4.408253295082
1361 1 14.311600061459 14.210736687921 7.051857694244
1362 1 15.087219336320 15.166945792318 7.986463984673
1363 1 14.301542214703 16.007849490353 8.978111426571
1364 1 15.053989411783 16.959791744162 9.873977694378
1365 1 15.995753535208 14.144301953965 8.895310804958
1366 1 16.882317768816 15.129896377547 9.893284805082
1367 1 15.996579795759 15.965725507894 7.087157873238
1368 1 16.834915108435 16.874391900045 7.999242460799
1369 1 14.172683315056 14.216657089210 10.692732338881
1370 1 15.171859463681 15.232941573936 11.620615456420
1371 1 14.182274738030 15.998246738243 12.542706389508
1372 1 15.229279955982 16.988489032400 13.465347060059
1373 1 16.086977994273 14.202169940950 12.577602801193
1374 1 16.991727472127 15.119238458641 13.280916160861
1375 1 16.099497552774 16.029698157093 10.571484342006
1376 1 16.916153338543 17.009756139714 11.580058962574
1377 1 14.314961457858 14.158752832253 14.242957319107
1378 1 15.121662686628 15.135403371231 15.205502383323
1379 1 14.224385019547 15.975090484083 16.132325289087
1380 1 15.159286857629 16.858523965815 16.838617129390
1381 1 16.117605629884 14.245840992854 15.972118844282
1382 1 16.931733130468 15.221710577832 16.948036319696
1383 1 15.997511690317 16.051972638203 14.317123051457
1384 1 16.994583965934 16.876479102533 15.249404917321
1385 1 14.380961523981 14.338465634633 17.931085804779
1386 1 15.106831996049 15.274597637095 18.639624088480
1387 1 14.211107494433 16.085182472434 19.657077731383
1388 1 15.077676210699 16.907917067843 20.422039751489
1389 1 16.055320121503 14.185733919384 19.525919983705
1390 1 16.995232072936 15.152506782257 20.592356083300
1391 1 16.014608231655 16.091864463002 17.721042090416
1392 1 17.024320301040 16.935498424910 18.721996103431
1393 1 14.266503190135 17.949872830204 0.008398581002
1394 1 15.286320614498 18.759300069051 0.842865266539
1395 1 14.330335992122 19.587589704697 1.890110792010
1396 1 15.151440949656 20.497521124146 2.725996544850
1397 1 16.003327535396 17.833497514751 1.735846091959
1398 1 16.963125728490 18.643647217283 2.651435433467
1399 1 15.998199312291 19.671684593939 -0.099835814209
1400 1 16.954745655630 20.441963896335 0.862845544426
1401 1 14.295556127023 17.831094666072 3.488074278607
1402 1 15.086359739201 18.657054500513 4.544591347839
1403 1 14.210547497248 19.554464163356 5.318682785928
1404 1 15.186440327232 20.579726305660 6.153882577898
1405 1 15.992635489600 17.778286990898 5.413130908885
1406 1 16.931522887738 18.753631535145 6.307685625746
1407 1 16.077221133086 19.715383402875 3.661628684719
1408 1 16.911248227611 20.605993326868 4.473634648433
1409 1 14.151052835374 17.898312538780 7.062993147267
1410 1 15.118792580908 18.672386472113 7.994624941296
1411 1 14.398759130577 19.712395586667 8.947548568399
1412 1 15.133763618521 20.557887343109 9.830751749075
1413 1 16.071773412750 17.843013364883 8.823990353990
1414 1 16.898012909159 18.764297238892 9.812359675872
1415 1 16.121725896651 19.685662022775 7.210061915128
1416 1 16.903666857789 20.463663823651 8.123914183787
1417 1 14.271432857209 17.782395692066 10.758870840141
1418 1 15.121498332950 18.670162684693 11.513050020037
1419 1 14.287122762978 19.654445261430 12.401142908777
1420 1 15.195738082056 20.492083229608 13.367765815049
1421 1 16.108639839937 17.909246190465 12.374931983564
1422 1 16.939323507596 18.754866541671 13.377794998742
1423 1 16.084368320100 19.584218575596 10.830820104216
1424 1 16.996040819828 20.468518858511 11.542121038696
1425 1 14.335614940147 17.784483399792 14.259505769110
1426 1 15.221391346166 18.789284772153 15.090322808635
1427 1 14.329916324417 19.585254827664 16.085003032099
1428 1 15.235110998556 20.446455249186 16.867562121101
1429 1 15.995833226478 17.766682078431 15.961155166223
1430 1 16.893951975153 18.725326867595 16.941388482646
1431 1 15.976548916528 19.654152053658 14.362120593735
1432 1 16.973832923830 20.484480696472 15.211278621065
1433 1 14.260543217130 17.789937978550 17.852739170598
1434 1 15.052647077237 18.741276376784 18.655195737843
1435 1 14.279861621415 19.724611851543 19.625540663786
1436 1 15.241531397362 20.519741711284 20.539130784702
1437 1 16.061977750085 17.881361795516 19.591771596587
1438 1 17.016573645622 18.718230771368 20.473708756567
1439 1 16.086523520633 19.680375077557 17.848899435128
1440 1 17.015701948930 20.514934460304 18.652535964468
1441 1 17.692253041701 -0.022366974740 0.037082625165
1442 1 18.709616284610 0.786831834936 0.802526184313
1443 1 17.780379192230 1.841441395273 1.672661376415
1444 1 18.696659101025 2.605617252654 2.730489182686
1445 1 19.701707169754 -0.111556532688 1.694361291064
1446 1 20.566368095169 0.966856880521 2.611821771566
1447 1 19.599200168771 1.785465102737 -0.015653553803
1448 1 20.463164470693 2.669696416405 0.858084656703
1449 1 17.762846847846 -0.083198446114 3.544349418735
1450 1 18.649403646579 0.893714133339 4.504029882440
1451 1 17.757570305762 1.862338936209 5.389813760117
1452 1 18.686744853665 2.679273955637 6.177590151156
1453 1 19.663887965679 -0.032745584890 5.254176000949
1454 1 20.445367871417 0.941244255431 6.213912474372
1455 1 19.645121623045 1.731509678927 3.609414308550
1456 1 20.571067963098 2.563385416618 4.469372615040
1457 1 17.735251227069 0.078743788551 7.185453191008
1458 1 18.804310311525 0.828605163399 7.943744858366
1459 1 17.869815279813 1.780428915558 8.835697742544
1460 1 18.657529550439 2.704199301702 9.715340851246
1461 1 19.652571446516 -0.038770227152 8.854614755173
1462 1 20.496860913554 0.910270664160 9.865091593576
1463 1 19.530981925380 1.860143281082 7.058952771155
1464 1 20.508395276625 2.683230492388 8.050857819979
1465 1 17.870673782338 0.125532363185 10.623873717824
1466 1 18.658666080933 0.924680764363 11.534851419847
1467 1 17.806124460213 1.736645294836 12.524802209032
1468 1 18.808818418822 2.732738212818 13.437648866722
1469 1 19.733753350172 -0.026863936546 12.447221843615
1470 1 20.551930930703 0.841241015657 13.404879637393
1471 1 19.540973315473 1.657238460948 10.691010263898
1472 1 20.407045568250 2.765760308491 11.678871990241
1473 1 17.762290437775 -0.063074383150 14.156710657324
1474 1 18.738065232425 0.904217568964 15.109818336634
1475 1 17.878464740843 1.795384113174 16.111273209965
1476 1 18.689033253004 2.596275885157 16.893915479538
1477 1 19.616472410683 -0.046465136250 16.083800691354
1478 1 20.449772470839 0.875070808918 16.977898242908
1479 1 19.690956122008 1.823677690577 14.229317136378
1480 1 20.512575939072 2.766765609146 15.288303204397
1481 1 17.870015377756 -0.095602551706 17.796802452162
1482 1 18.758276013163 0.882488062854 18.618351133835
1483 1 17.931575237527 1.868939185119 19.531849736858
1484 1 18.741506220496 2.724396286692 20.471117563538
1485 1 19.494962799234 0.040528622103 19.671462833687
1486 1 20.499472266582 0.808401207934 20.491446885130
1487 1 19.522981827983 1.875456441821 17.760858792332
1488 1 20.454724062554 2.740976374351 18.664903937106
1489 1 17.776262088114 3.475196852296 -0.104801797295
1490 1 18.742415498166 4.559260753536 0.857090332391
1491 1 17.788854775367 5.438133447061 1.762165937137
1492 1 18.713313756059 6.154830958646 2.614278454926
1493 1 19.722083568592 3.484049858390 1.717372781379
1494 1 20.574663554515 4.541406065237 2.784707169993
1495 1 19.586581768972 5.433365096528 0.010465214300
1496 1 20.463337711659 6.249723416335 0.911772286310
1497 1 17.903215197355 3.482947568350 3.528896673432
1498 1 18.848419661063 4.417009269760 4.501166477840
1499 1 17.795241620871 5.315037061663 5.320404134672
1500 1 18.712081727637 6.356479333309 6.173091703751
1501 1 19.678378419484 3.519163960841 5.309761493909
1502 1 20.557136518813 4.419692845624 6.217606052066
1503 1 19.605930767370 5.390147492852 3.641714396304
1504 1 20.520791623796 6.137535271319 4.517628383270
1505 1 17.810999105686 3.651579045268 7.204459817697
1506 1 18.702771120465 4.539856621178 8.035829653847
1507 1 17.797986271916 5.336504923867 8.897090605194
1508 1 18.682113517264 6.242771643266 9.748303814297
1509 1 19.544845863045 3.651573035449 8.927532397057
1510 1 20.560388912454 4.558000239051 9.857553550460
1511 1 19.591052856279 5.465520751708 7.235814759496
1512 1 20.622097091638 6.296676341923 8.087679160715
1513 1 17.895897061323 3.518272475442 10.732566432994
1514 1 18.692891193792 4.526566561896 11.516275775282
1515 1 17.851832468489 5.315371796176 12.556333309359
1516 1 18.704927499052 6.316697340255 13.493137302977
1517 1 19.713922028238 3.463171726713 12.546778344033
1518 1 20.577964320055 4.516056990013 13.400814680170
1519 1 19.532667591570 5.423627152585 10.707154506057
1520 1 20.516780482510 6.190342209496 11.635014799908
1521 1 17.905214425470 3.626509486777 14.211470248237
1522 1 18.701565169326 4.368432017794 15.094091639659
1523 1 17.800383255426 5.293593085650 16.160788501624
1524 1 18.641535987660 6.156965447804 16.847901130802
1525 1 19.664272965253 3.484809059479 16.021487360545
1526 1 20.451471080332 4.505643550287 17.043616961064
1527 1 19.588479448618 5.431307982965 14.375917672879
1528 1 20.483533946720 6.319026316678 15.235262806109
1529 1 17.811946990162 3.646309129489 17.827612078937
1530 1 18.645328243773 4.430531989912 18.820838658593
1531 1 17.852683009225 5.359902503753 19.597060782981
1532 1 18.777874611709 6.273265699975 20.465754644665
1533 1 19.622493232005 3.530833264221 19.680124641941
1534 1 20.561424658265 4.403592862505 20.592258154242
1535 1 19.538321339204 5.405614812098 17.814052525366
1536 1 20.566240606963 6.237985449073 18.659058940867
1537 1 17.844636055437 7.219089403585 0.055832997893
1538 1 18.666556397552 7.976635917295 0.948525419290
1539 1 17.893623591301 8.853772421778 1.865629375780
1540 1 18.795840266988 9.822481120486 2.645580019057
1541 1 19.654655268559 7.213154086262 1.695800579681
1542 1 20.477130409051 7.995625387033 2.741420743766
1543 1 19.559040738001 8.931823359783 0.038652723571
1544 1 20.538913026363 9.741229274405 0.971920686582
1545 1 17.927790907628 7.145494881346 3.596369377421
1546 1 18.658692760097 8.118429921943 4.491475085180
1547 1 17.898729322765 9.030599902650 5.337464309937
1548 1 18.799987980522 9.747454758977 6.167110822834
1549 1 19.654896106499 7.238677195567 5.443117944223
1550 1 20.632609139256 8.037720084258 6.338056335905
1551 1 19.650510815526 8.849192217117 3.585475314753
1552 1 20.544318351725 9.777950687472 4.484433257752
1553 1 17.783471391133 7.125331579345 7.100900333852
1554 1 18.686288331879 7.993273394082 7.930935188217
1555 1 17.716540332057 8.875709463306 8.965291503279
1556 1 18.770695705230 9.747731778607 9.764621181736
1557 1 19.613887734414 7.083218400006 8.939392639362
1558 1 20.586531345083 7.975930419364 9.809002108085
1559 1 19.653357507312 8.946888466900 7.169015695068
1560 1 20.539227563425 9.761627638270 8.071843326871
1561 1 17.896882635643 7.077280344537 10.834600695939
1562 1 18.746553840917 7.945833756166 11.466326031470
1563 1 17.912753941620 8.952143665229 12.404585255901
1564 1 18.729186672788 9.848218694646 13.507020896170
1565 1 19.627485982766 7.193924738194 12.420916503688
1566 1 20.453909253746 7.931518772472 13.350953646402
1567 1 19.620919484652 8.896916147142 10.658878412445
1568 1 20.448912603466 9.736022183231 11.539187481245
1569 1 17.814028672681 7.134132745885 14.226436593273
1570 1 18.712184037248 8.034729891754 15.278799164248
1571 1 17.831582176794 9.015523810904 16.047641201020
1572 1 18.678306776183 9.841171296868 16.877389895132
1573 1 19.547857673826 7.065157844230 16.101014351998
1574 1 20.651304083343 7.984889072463 16.952995350184
1575 1 19.611916530391 8.904003966498 14.293842125836
1576 1 20.480597986560 9.746977641703 15.233241208538
1577 1 17.821923020881 7.036892929955 17.906672610727
1578 1 18.763289201831 8.017266821138 18.777200579629
1579 1 17.902761654953 8.891800026550 19.593894481883
1580 1 18.689991750947 9.840700194929 20.551669691807
1581 1 19.662210250127 7.213722162994 19.578061893212
1582 1 20.509543413697 8.105945723128 20.544259728340
1583 1 19.656226543025 8.955891598195 17.783529059158
1584 1 20.627496722335 9.829965456736 18.680417263772
1585 1 17.766451465926 10.621184414178 0.068892811961
1586 1 18.799437107943 11.519126672004 0.849083196818
1587 1 17.871576247130 12.488992503591 1.792549711426
1588 1 18.815384270854 13.367003630802 2.710801452986
1589 1 19.692854599504 10.751182065921 1.762455412792
1590 1 20.476069117343 11.572651992531 2.714239322139
1591 1 19.641073757837 12.440332057381 -0.026297428548
1592 1 20.455361636588 13.314237807224 0.968846864470
1593 1 17.812766273188 10.662231769531 3.511908667753
1594 1 18.782264092549 11.512637078476 4.501516623940
1595 1 17.747649641421 12.381216412406 5.220283081814
1596 1 18.803625800039 13.285005799539 6.196682101390
1597 1 19.537023047164 10.657461981077 5.398211751272
1598 1 20.562807709483 11.651626003636 6.334242955128
1599 1 19.637198271610 12.584784408735 3.498522260326
1600 1 20.591631967095 13.367037129858 4.401512316378
1601 1 17.870346009668 10.775509674855 7.115751703673
1602 1 18.637732477177 11.670034182044 8.099866879540
1603 1 17.843000676534 12.627070488074 8.828391965278
1604 1 18.650563961911 13.321177043846 9.720360077532
1605 1 19.647762370538 10.723714336007 8.853694160718
1606 1 20.452233391079 11.474536057847 9.865119957469
1607 1 19.647110017980 12.565757647357 7.117941278826
1608 1 20.591126384944 13.372831673184 7.986104288839
1609 1 17.784161442521 10.647349388970 10.815103758017
1610 1 18.838980013494 11.628040942846 11.485843349361
1611 1 17.755252097846 12.423549743054 12.469675376212
1612 1 18.753477072377 13.290865027389 13.376969925866
1613 1 19.684112823041 10.632413485517 12.480866019406
1614 1 20.529189300181 11.603605811659 13.358198677834
1615 1 19.695875467659 12.475887075027 10.692073588766
1616 1 20.520751025699 13.460542302154 11.659616969142
1617 1 17.909876954328 10.713117161420 14.208506713527
1618 1 18.692450738253 11.570421970917 15.197973588813
1619 1 17.764041247520 12.521525209447 16.128677554331
1620 1 18.749842530453 13.290508736811 16.990514284789
1621 1 19.613720770963 10.746659509343 16.100282369200
1622 1 20.552537743375 11.587872621681 17.013070626386
1623 1 19.714699375322 12.569704027318 14.279177072039
1624 1 20.467042610694 13.389957445595 15.123477297542
1625 1 17.918128429943 10.737361860423 17.882685853760
1626 1 18.797257027218 11.695429811158 18.793614061215
1627 1 17.799159955547 12.533235157520 19.570618017733
1628 1 18.750867631799 13.306704073665 20.585137368743
1629 1 19.629326620235 10.682070895901 19.694875799105
1630 1 20.400222437123 11.691139153580 20.593023480046
1631 1 19.546674940294 12.550347879991 17.835150030809
1632 1 20.595780528342 13.384690346362 18.705884665931
1633 1 17.909444423467 14.177314300305 0.048033238274
1634 1 18.650943433799 15.117778675804 0.833860137670
1635 1 17.907367006675 16.020907004368 1.824089405754
1636 1 18.656242980935 17.009258554641 2.726728140804
1637 1 19.512034874158 14.240685937452 1.851511956296
1638 1 20.444560066387 15.192261709094 2.588039759626
1639 1 19.617539943834 16.171594935603 0.094953807324
1640 1 20.590399205414 16.961536833215 0.909029359216
1641 1 17.891849117312 14.360185932007 3.539929977354
1642 1 18.812396674697 15.116002851982 4.564426183034
1643 1 17.818796546915 15.950879425325 5.440579393176
1644 1 18.657699805769 16.960308039866 6.122449722762
1645 1 19.701133572971 14.299252768753 5.396721161030
1646 1 20.414250281213 15.218189114068 6.197001541617
1647 1 19.566886270802 16.123396476364 3.471214867403
1648 1 20.509649365399 16.815184473840 4.470738920550
1649 1 17.921465458025 14.151567368871 7.143148572519
1650 1 18.701298806783 15.172130104497 8.068539124650
1651 1 17.794997547112 16.137341650455 8.884817197150
1652 1 18.638555529553 17.000753402212 9.753660456111
1653 1 19.546981864137 14.247720106466 8.888486640372
1654 1 20.454271963364 15.197352820243 9.789692067503
1655 1 19.687172983362 16.011151784045 7.223924209799
1656 1 20.451232216616 16.998487174854 8.044480291291
1657 1 17.962427087026 14.339607525448 10.686859971245
1658 1 18.713403532403 15.210031688612 11.599049068402
1659 1 17.768917056985 16.169693231140 12.570541735261
1660 1 18.739876575910 16.993426676544 13.311127421713
1661 1 19.579306116004 14.346897316318 12.595396512721
1662 1 20.587573444804 15.122282108327 13.438983667379
1663 1 19.624252867473 16.024879491433 10.654010463409
1664 1 20.459063905072 16.926417209836 11.590120757611
1665 1 17.806445496538 14.278290356094 14.290500514218
1666 1 18.811216761102 15.188958290994 15.076655863153
1667 1 17.933913374626 16.069875386400 16.124960419321
1668 1 18.845658692995 16.848741872798 16.945213284937
1669 1 19.724334562506 14.273766690127 16.066479167010
1670 1 20.462931649428 15.087616163916 16.898030687731
1671 1 19.550646138228 15.977532146994 14.296248451017
1672 1 20.506738816809 17.001510220369 15.190846616792
1673 1 17.845989520871 14.374236215677 17.862613963146
1674 1 18.736576976526 15.231305557061 18.768698929039
1675 1 17.801731922806 16.051182190602 19.566107381724
1676 1 18.833190722492 16.901744634309 20.583368430201
1677 1 19.528965169762 14.181844213169 19.613201091831
1678 1 20.484064833105 15.143420524810 20.426589903247
1679 1 19.719505603456 16.077150037827 17.842282109065
1680 1 20.579372459619 17.027559498133 18.780501352450
1681 1 17.883413974618 17.732445158444 -0.091633362407
1682 1 18.715544389759 18.847219586567 0.846632635774
1683 1 17.833053378058 19.514575537760 1.758766755442
1684 1 18.813403592866 20.520537871408 2.733737932588
1685 1 19.506958078602 17.760658088623 1.709774111565
1686 1 20.582062994708 18.659834520212 2.766885879296
1687 1 19.542741817578 19.717907028522 0.060200870572
1688 1 20.469065170954 20.582673130401 0.877345272382
1689 1 17.897799276358 17.738959189928 3.647366913009
1690 1 18.823630202224 18.675045123884 4.518856079192
1691 1 17.796516699558 19.516492569899 5.315427308559
1692 1 18.766197188416 20.646207162670 6.357511518535
1693 1 19.727111752189 17.837035954601 5.377151311273
1694 1 20.401675950982 18.741095288882 6.231506462308
1695 1 19.573316927399 19.688622472767 3.495465254956
1696 1 20.440408960939 20.417452246729 4.402326833534
1697 1 17.836225729529 17.891236963435 7.060193508659
1698 1 18.709565231004 18.751989345487 8.022021346941
1699 1 17.824965832548 19.615583919103 8.820361227030
1700 1 18.626814580975 20.527479445088 9.774505918345
1701 1 19.724483428446 17.755889550287 9.017652308064
1702 1 20.466750184597 18.657725250119 9.804960762040
1703 1 19.597441918513 19.579553918840 7.205889612749
1704 1 20.454425454596 20.560312238633 8.099232823264
1705 1 17.863744316672 17.842919802316 10.809903310551
1706 1 18.741092706484 18.649262529673 11.513102706650
1707 1 17.749151048018 19.582423607879 12.396078125426
1708 1 18.747805438142 20.531142313807 13.321719240384
1709 1 19.625994726405 17.880463592376 12.450207640199
1710 1 20.451479330128 18.707966503949 13.327872101348
1711 1 19.669348781248 19.653232002509 10.734823977279
1712 1 20.440994637844 20.426605760243 11.511583263021
1713 1 17.921826615251 17.844804554141 14.201400837631
1714 1 18.757057639843 18.663946085267 15.195303935528
1715 1 17.757238033650 19.534212541979 16.069559184147
1716 1 18.755437187577 20.525718318737 16.899970439857
1717 1 19.677164693127 17.784041712664 16.056865099248
1718 1 20.402801955541 18.791610177619 16.843382442034
1719 1 19.572468085817 19.597081855010 14.199609156543
1720 1 20.452718972778 20.528200930204 15.252936000938
1721 1 17.778150872689 17.777329052384 17.881615250267
1722 1 18.634425884951 18.693594836318 18.752142146605
1723 1 17.812605677177 19.549466535693 19.522855244227
1724 1 18.722334747176 20.606411783783 20.590883275489
1725 1 19.506389122745 17.799876140990 19.604737355466
1726 1 20.463052674895 18.756780792912 20.494442929287
1727 1 19.699009477925 19.524380435307 17.936701458828
1728 1 20.586638100019 20.525238000796 18.653395429577
