64
Lattice="7.134 0.0 0.0 0.0 7.134 0.0 0.0 0.0 7.134" Properties=species:S:1:pos:R:3 pbc="T T T"
C -0.002746537033 -0.082065295215 0.019623454608
C 0.784777887334 0.916234550861 0.818857013383
C -0.053503975045 1.769763006638 1.697379911688
C 0.873491726732 2.618463244715 2.552189792669
C 1.761955497829 0.057689334934 1.730935782230
C 2.597899962921 0.913788084481 2.747234618491
C 1.799764859723 1.774492394930 0.073238641119
C 2.607461006124 2.764975501810 0.859721747266
C -0.053131863329 -0.090116112384 3.526238564820
C 0.936259881824 0.822537515985 4.485677142732
C 0.013949473785 1.750044438545 5.346305443142
C 0.787403684995 2.573745313993 6.183188452564
C 1.797233784636 -0.009793228866 5.346525474075
C 2.707203252702 0.878550165274 6.184450819373
C 1.827432726304 1.857147976746 3.516835462144
C 2.677394832052 2.684107610762 4.575782599115
C 0.048292237888 3.536931612978 0.102038379499
C 0.808318155651 4.419524204357 0.936191335913
C -0.073780973068 5.360025080095 1.708121121409
C 0.944015211307 6.300875923243 2.707558008055
C 1.843507602366 3.554806862570 1.832817673255
C 2.688162115421 4.484499400856 2.664979636260
C 1.874126146103 5.469832559022 0.038531177484
C 2.680150511095 6.125501605519 0.921959084261
C 0.032626510906 3.683142567893 3.637697657322
C 0.808225086419 4.429784208489 4.509040033177
C -0.090885524389 5.358079277260 5.279663115781
C 0.811153998896 6.157772113866 6.304097627695
C 1.713334034404 3.518903136739 5.315276690627
C 2.757085674825 4.377302690240 6.254677160190
C 1.817366341829 5.430879895288 3.623350267567
C 2.735272283940 6.206404102903 4.443356103442
C 3.531877163066 0.077710505440 0.079146220793
C 4.402894821158 0.818050975698 0.862631523364
C 3.521737046736 1.792364116068 1.779426460746
C 4.414686973860 2.590879850677 2.639965290225
C 5.319026344579 0.013920534741 1.846657235105
C 6.286651921427 0.911771496614 2.681578229882
C 5.392750936490 1.668052908645 0.079132692012
C 6.265928448141 2.772580986827 0.959502634239
C 3.544983441378 -0.035707463536 3.513182538742
C 4.524949943137 0.767039924324 4.396942803169
C 3.541305657089 1.722720867554 5.294525370446
C 4.386532030778 2.571678246380 6.160424576456
C 5.246191713605 -0.016267265593 5.271456317333
C 6.304645865475 0.924975327558 6.149073267066
C 5.316988771311 1.753909259211 3.536101287906
C 6.164783526152 2.762415105297 4.572378774341
C 3.570787201832 3.566520951283 -0.081266647689
C 4.391555133350 4.431927057649 0.858352408343
C 3.626568735624 5.234090962105 1.708895634209
C 4.592686704575 6.256728769008 2.602567407780
C 5.356405595176 3.470027418284 1.789470078188
C 6.315509878544 4.521073116058 2.694548817182
C 5.307699019446 5.317907138352 -0.056687363093
C 6.293143521680 6.268495179499 0.951831658268
C 3.576746989010 3.473681114621 3.616363919355
C 4.573764950118 4.579842269749 4.514993016957
C 3.631539968665 5.393948324075 5.322477038006
C 4.456531584849 6.226963908671 6.141650000148
C 5.230636235084 3.529154657810 5.312398572654
C 6.306618908340 4.547844075268 6.219348295553
C 5.449159460255 5.452922351641 3.663613426264
C 6.213714927072 6.209549234599 4.411509015346
