648
Lattice="18.6 0.0 0.0 0.0 18.6 0.0 0.0 0.0 18.6" Properties=species:S:1:pos:R:3 pbc="T T T"
O 1.550000000000 1.550000000000 1.669262000000
H 2.128691610000 1.052355760000 1.072953000000
H 0.971308390000 2.047644240000 1.072953000000
O 1.550000000000 1.550000000000 4.769262000000
H 0.792651850000 1.455355640000 4.172953000000
H 2.307348150000 1.644644360000 4.172953000000
O 1.550000000000 1.550000000000 7.869262000000
H 1.355671830000 2.288085590000 7.272953000000
H 1.744328170000 0.811914410000 7.272953000000
O 1.550000000000 1.550000000000 10.969262000000
H 1.470882910000 2.309127300000 10.372953000000
H 1.629117090000 0.790872700000 10.372953000000
O 1.550000000000 1.550000000000 14.069262000000
H 2.253719110000 1.845488060000 13.472953000000
H 0.846280890000 1.254511940000 13.472953000000
O 1.550000000000 1.550000000000 17.169262000000
H 1.947745740000 2.201407780000 16.572953000000
H 1.152254260000 0.898592220000 16.572953000000
O 1.550000000000 4.650000000000 1.669262000000
H 2.023968110000 4.051762580000 1.072953000000
H 1.076031890000 5.248237420000 1.072953000000
O 1.550000000000 4.650000000000 4.769262000000
H 2.306914260000 4.551946030000 4.172953000000
H 0.793085740000 4.748053970000 4.172953000000
O 1.550000000000 4.650000000000 7.869262000000
H 1.756596890000 3.915254130000 7.272953000000
H 1.343403110000 5.384745870000 7.272953000000
O 1.550000000000 4.650000000000 10.969262000000
H 1.852799980000 5.350603990000 10.372953000000
H 1.247200020000 3.949396010000 10.372953000000
O 1.550000000000 4.650000000000 14.069262000000
H 2.248830420000 4.956871010000 13.472953000000
H 0.851169580000 4.343128990000 13.472953000000
O 1.550000000000 4.650000000000 17.169262000000
H 1.536867970000 5.413126020000 16.572953000000
H 1.563132030000 3.886873980000 16.572953000000
O 1.550000000000 7.750000000000 1.669262000000
H 2.145941830000 8.226851240000 1.072953000000
H 0.954058170000 7.273148760000 1.072953000000
O 1.550000000000 7.750000000000 4.769262000000
H 1.390130680000 8.496307960000 4.172953000000
H 1.709869320000 7.003692040000 4.172953000000
O 1.550000000000 7.750000000000 7.869262000000
H 2.307011770000 7.652701710000 7.272953000000
H 0.792988230000 7.847298290000 7.272953000000
O 1.550000000000 7.750000000000 10.969262000000
H 0.868527460000 8.093698930000 10.372953000000
H 2.231472540000 7.406301070000 10.372953000000
O 1.550000000000 7.750000000000 14.069262000000
H 2.128251730000 8.248155310000 13.472953000000
H 0.971748270000 7.251844690000 13.472953000000
O 1.550000000000 7.750000000000 17.169262000000
H 1.746588960000 7.012513360000 16.572953000000
H 1.353411040000 8.487486640000 16.572953000000
O 1.550000000000 10.850000000000 1.669262000000
H 0.823690810000 10.615460590000 1.072953000000
H 2.276309190000 11.084539410000 1.072953000000
O 1.550000000000 10.850000000000 4.769262000000
H 1.193651440000 10.175055950000 4.172953000000
H 1.906348560000 11.524944050000 4.172953000000
O 1.550000000000 10.850000000000 7.869262000000
H 1.414906500000 11.601188070000 7.272953000000
H 1.685093500000 10.098811930000 7.272953000000
O 1.550000000000 10.850000000000 10.969262000000
H 1.012744390000 11.392116390000 10.372953000000
H 2.087255610000 10.307883610000 10.372953000000
O 1.550000000000 10.850000000000 14.069262000000
H 2.220268860000 10.484933670000 13.472953000000
H 0.879731140000 11.215066330000 13.472953000000
O 1.550000000000 10.850000000000 17.169262000000
H 2.159455350000 10.390546030000 16.572953000000
H 0.940544650000 11.309453970000 16.572953000000
O 1.550000000000 13.950000000000 1.669262000000
H 2.056122860000 13.378708980000 1.072953000000
H 1.043877140000 14.521291020000 1.072953000000
O 1.550000000000 13.950000000000 4.769262000000
H 1.040521350000 13.381699660000 4.172953000000
H 2.059478650000 14.518300340000 4.172953000000
O 1.550000000000 13.950000000000 7.869262000000
H 1.563379270000 14.713121720000 7.272953000000
H 1.536620730000 13.186878280000 7.272953000000
O 1.550000000000 13.950000000000 10.969262000000
H 1.641683570000 14.707712280000 10.372953000000
H 1.458316430000 13.192287720000 10.372953000000
O 1.550000000000 13.950000000000 14.069262000000
H 2.251494300000 13.649268350000 13.472953000000
H 0.848505700000 14.250731650000 13.472953000000
O 1.550000000000 13.950000000000 17.169262000000
H 2.168765340000 13.503163090000 16.572953000000
H 0.931234660000 14.396836910000 16.572953000000
O 1.550000000000 17.050000000000 1.669262000000
H 2.256865830000 16.762120740000 1.072953000000
H 0.843134170000 17.337879260000 1.072953000000
O 1.550000000000 17.050000000000 4.769262000000
H 1.059518960000 16.465224730000 4.172953000000
H 2.040481040000 17.634775270000 4.172953000000
O 1.550000000000 17.050000000000 7.869262000000
H 0.977180030000 17.554391770000 7.272953000000
H 2.122819970000 16.545608230000 7.272953000000
O 1.550000000000 17.050000000000 10.969262000000
H 2.301024560000 16.914000440000 10.372953000000
H 0.798975440000 17.185999560000 10.372953000000
O 1.550000000000 17.050000000000 14.069262000000
H 1.671074850000 16.296425420000 13.472953000000
H 1.428925150000 17.803574580000 13.472953000000
O 1.550000000000 17.050000000000 17.169262000000
H 0.840786140000 16.767954830000 16.572953000000
H 2.259213860000 17.332045170000 16.572953000000
O 4.650000000000 1.550000000000 1.669262000000
H 4.582162080000 0.789781750000 1.072953000000
H 4.717837920000 2.310218250000 1.072953000000
O 4.650000000000 1.550000000000 4.769262000000
H 5.138396800000 2.136517120000 4.172953000000
H 4.161603200000 0.963482880000 4.172953000000
O 4.650000000000 1.550000000000 7.869262000000
H 4.957322900000 2.248631810000 7.272953000000
H 4.342677100000 0.851368190000 7.272953000000
O 4.650000000000 1.550000000000 10.969262000000
H 4.055231220000 1.071686440000 10.372953000000
H 5.244768780000 2.028313560000 10.372953000000
O 4.650000000000 1.550000000000 14.069262000000
H 4.981594430000 0.862556250000 13.472953000000
H 4.318405570000 2.237443750000 13.472953000000
O 4.650000000000 1.550000000000 17.169262000000
H 3.963265280000 1.216939650000 16.572953000000
H 5.336734720000 1.883060350000 16.572953000000
O 4.650000000000 4.650000000000 1.669262000000
H 5.076223510000 4.016859180000 1.072953000000
H 4.223776490000 5.283140820000 1.072953000000
O 4.650000000000 4.650000000000 4.769262000000
H 4.000264340000 4.249528590000 4.172953000000
H 5.299735660000 5.050471410000 4.172953000000
O 4.650000000000 4.650000000000 7.869262000000
H 4.169500510000 4.056995770000 7.272953000000
H 5.130499490000 5.243004230000 7.272953000000
O 4.650000000000 4.650000000000 10.969262000000
H 5.135492380000 5.238923530000 10.372953000000
H 4.164507620000 4.061076470000 10.372953000000
O 4.650000000000 4.650000000000 14.069262000000
H 3.894608450000 4.759166720000 13.472953000000
H 5.405391550000 4.540833280000 13.472953000000
O 4.650000000000 4.650000000000 17.169262000000
H 5.183509240000 4.104196310000 16.572953000000
H 4.116490760000 5.195803690000 16.572953000000
O 4.650000000000 7.750000000000 1.669262000000
H 4.265551560000 8.409342980000 1.072953000000
H 5.034448440000 7.090657020000 1.072953000000
O 4.650000000000 7.750000000000 4.769262000000
H 5.312630680000 8.128753680000 4.172953000000
H 3.987369320000 7.371246320000 4.172953000000
O 4.650000000000 7.750000000000 7.869262000000
H 5.392597980000 7.926300920000 7.272953000000
H 3.907402020000 7.573699080000 7.272953000000
O 4.650000000000 7.750000000000 10.969262000000
H 3.888462930000 7.800941700000 10.372953000000
H 5.411537070000 7.699058300000 10.372953000000
O 4.650000000000 7.750000000000 14.069262000000
H 5.184635080000 8.294700930000 13.472953000000
H 4.115364920000 7.205299070000 13.472953000000
O 4.650000000000 7.750000000000 17.169262000000
H 4.375429130000 8.462140860000 16.572953000000
H 4.924570870000 7.037859140000 16.572953000000
O 4.650000000000 10.850000000000 1.669262000000
H 3.995791180000 10.456878400000 1.072953000000
H 5.304208820000 11.243121600000 1.072953000000
O 4.650000000000 10.850000000000 4.769262000000
H 4.031739880000 11.297535690000 4.172953000000
H 5.268260120000 10.402464310000 4.172953000000
O 4.650000000000 10.850000000000 7.869262000000
H 4.415694520000 10.123615310000 7.272953000000
H 4.884305480000 11.576384690000 7.272953000000
O 4.650000000000 10.850000000000 10.969262000000
H 5.381136470000 11.069027920000 10.372953000000
H 3.918863530000 10.630972080000 10.372953000000
O 4.650000000000 10.850000000000 14.069262000000
H 3.892399540000 10.942602970000 13.472953000000
H 5.407600460000 10.757397030000 13.472953000000
O 4.650000000000 10.850000000000 17.169262000000
H 4.404946580000 11.572829570000 16.572953000000
H 4.895053420000 10.127170430000 16.572953000000
O 4.650000000000 13.950000000000 1.669262000000
H 4.219220200000 13.319950370000 1.072953000000
H 5.080779800000 14.580049630000 1.072953000000
O 4.650000000000 13.950000000000 4.769262000000
H 3.926351760000 14.192625230000 4.172953000000
H 5.373648240000 13.707374770000 4.172953000000
O 4.650000000000 13.950000000000 7.869262000000
H 4.237991570000 14.592481770000 7.272953000000
H 5.062008430000 13.307518230000 7.272953000000
O 4.650000000000 13.950000000000 10.969262000000
H 5.019089210000 13.281937930000 10.372953000000
H 4.280910790000 14.618062070000 10.372953000000
O 4.650000000000 13.950000000000 14.069262000000
H 3.922208740000 13.720100780000 13.472953000000
H 5.377791260000 14.179899220000 13.472953000000
O 4.650000000000 13.950000000000 17.169262000000
H 5.323387510000 13.590718730000 16.572953000000
H 3.976612490000 14.309281270000 16.572953000000
O 4.650000000000 17.050000000000 1.669262000000
H 3.924838010000 17.288062720000 1.072953000000
H 5.375161990000 16.811937280000 1.072953000000
O 4.650000000000 17.050000000000 4.769262000000
H 4.921520570000 17.763309440000 4.172953000000
H 4.378479430000 16.336690560000 4.172953000000
O 4.650000000000 17.050000000000 7.869262000000
H 4.077835500000 16.544864820000 7.272953000000
H 5.222164500000 17.555135180000 7.272953000000
O 4.650000000000 17.050000000000 10.969262000000
H 4.180330970000 17.651618460000 10.372953000000
H 5.119669030000 16.448381540000 10.372953000000
O 4.650000000000 17.050000000000 14.069262000000
H 5.203440810000 16.524417430000 13.472953000000
H 4.096559190000 17.575582570000 13.472953000000
O 4.650000000000 17.050000000000 17.169262000000
H 4.987265630000 17.734679240000 16.572953000000
H 4.312734370000 16.365320760000 16.572953000000
O 7.750000000000 1.550000000000 1.669262000000
H 7.470715430000 0.839694500000 1.072953000000
H 8.029284570000 2.260305500000 1.072953000000
O 7.750000000000 1.550000000000 4.769262000000
H 7.964822030000 2.282383280000 4.172953000000
H 7.535177970000 0.817616720000 4.172953000000
O 7.750000000000 1.550000000000 7.869262000000
H 7.749500370000 0.786761160000 7.272953000000
H 7.750499630000 2.313238840000 7.272953000000
O 7.750000000000 1.550000000000 10.969262000000
H 7.404473990000 0.869452020000 10.372953000000
H 8.095526010000 2.230547980000 10.372953000000
O 7.750000000000 1.550000000000 14.069262000000
H 8.273218770000 0.994323930000 13.472953000000
H 7.226781230000 2.105676070000 13.472953000000
O 7.750000000000 1.550000000000 17.169262000000
H 7.773511340000 2.312876780000 16.572953000000
H 7.726488660000 0.787123220000 16.572953000000
O 7.750000000000 4.650000000000 1.669262000000
H 7.990666340000 5.374302070000 1.072953000000
H 7.509333660000 3.925697930000 1.072953000000
O 7.750000000000 4.650000000000 4.769262000000
H 7.560399850000 3.910685750000 4.172953000000
H 7.939600150000 5.389314250000 4.172953000000
O 7.750000000000 4.650000000000 7.869262000000
H 8.512339220000 4.687049670000 7.272953000000
H 6.987660780000 4.612950330000 7.272953000000
O 7.750000000000 4.650000000000 10.969262000000
H 7.737640890000 3.886861070000 10.372953000000
H 7.762359110000 5.413138930000 10.372953000000
O 7.750000000000 4.650000000000 14.069262000000
H 7.889775240000 3.899668970000 13.472953000000
H 7.610224760000 5.400331030000 13.472953000000
O 7.750000000000 4.650000000000 17.169262000000
H 8.494026720000 4.820170530000 16.572953000000
H 7.005973280000 4.479829470000 16.572953000000
O 7.750000000000 7.750000000000 1.669262000000
H 7.360060080000 7.093889770000 1.072953000000
H 8.139939920000 8.406110230000 1.072953000000
O 7.750000000000 7.750000000000 4.769262000000
H 8.509614650000 7.675707670000 4.172953000000
H 6.990385350000 7.824292330000 4.172953000000
O 7.750000000000 7.750000000000 7.869262000000
H 8.490604380000 7.565503590000 7.272953000000
H 7.009395620000 7.934496410000 7.272953000000
O 7.750000000000 7.750000000000 10.969262000000
H 8.066007080000 8.444746930000 10.372953000000
H 7.433992920000 7.055253070000 10.372953000000
O 7.750000000000 7.750000000000 14.069262000000
H 7.245503370000 8.322727620000 13.472953000000
H 8.254496630000 7.177272380000 13.472953000000
O 7.750000000000 7.750000000000 17.169262000000
H 8.506614180000 7.649656820000 16.572953000000
H 6.993385820000 7.850343180000 16.572953000000
O 7.750000000000 10.850000000000 1.669262000000
H 8.086106300000 11.535249100000 1.072953000000
H 7.413893700000 10.164750900000 1.072953000000
O 7.750000000000 10.850000000000 4.769262000000
H 7.902773260000 11.597792820000 4.172953000000
H 7.597226740000 10.102207180000 4.172953000000
O 7.750000000000 10.850000000000 7.869262000000
H 7.679575170000 11.609982970000 7.272953000000
H 7.820424830000 10.090017030000 7.272953000000
O 7.750000000000 10.850000000000 10.969262000000
H 8.326805850000 11.349828760000 10.372953000000
H 7.173194150000 10.350171240000 10.372953000000
O 7.750000000000 10.850000000000 14.069262000000
H 7.839970860000 11.607917550000 13.472953000000
H 7.660029140000 10.092082450000 13.472953000000
O 7.750000000000 10.850000000000 17.169262000000
H 7.952738460000 11.585819870000 16.572953000000
H 7.547261540000 10.114180130000 16.572953000000
O 7.750000000000 13.950000000000 1.669262000000
H 7.136029220000 14.403402310000 1.072953000000
H 8.363970780000 13.496597690000 1.072953000000
O 7.750000000000 13.950000000000 4.769262000000
H 7.880614410000 14.701979820000 4.172953000000
H 7.619385590000 13.198020180000 4.172953000000
O 7.750000000000 13.950000000000 7.869262000000
H 8.236744930000 14.537888710000 7.272953000000
H 7.263255070000 13.362111290000 7.272953000000
O 7.750000000000 13.950000000000 10.969262000000
H 8.435675650000 14.285235260000 10.372953000000
H 7.064324350000 13.614764740000 10.372953000000
O 7.750000000000 13.950000000000 14.069262000000
H 7.654283330000 13.192786630000 13.472953000000
H 7.845716670000 14.707213370000 13.472953000000
O 7.750000000000 13.950000000000 17.169262000000
H 6.991437350000 14.034359220000 16.572953000000
H 8.508562650000 13.865640780000 16.572953000000
O 7.750000000000 17.050000000000 1.669262000000
H 8.473045960000 17.294414210000 1.072953000000
H 7.026954040000 16.805585790000 1.072953000000
O 7.750000000000 17.050000000000 4.769262000000
H 8.102768850000 17.726821920000 4.172953000000
H 7.397231150000 16.373178080000 4.172953000000
O 7.750000000000 17.050000000000 7.869262000000
H 6.990677530000 16.972778470000 7.272953000000
H 8.509322470000 17.127221530000 7.272953000000
O 7.750000000000 17.050000000000 10.969262000000
H 7.934856020000 16.309485300000 10.372953000000
H 7.565143980000 17.790514700000 10.372953000000
O 7.750000000000 17.050000000000 14.069262000000
H 7.481348740000 16.335604960000 13.472953000000
H 8.018651260000 17.764395040000 13.472953000000
O 7.750000000000 17.050000000000 17.169262000000
H 8.070550450000 17.742662380000 16.572953000000
H 7.429449550000 16.357337620000 16.572953000000
O 10.850000000000 1.550000000000 1.669262000000
H 10.657818950000 2.288647560000 1.072953000000
H 11.042181050000 0.811352440000 1.072953000000
O 10.850000000000 1.550000000000 4.769262000000
H 11.608366260000 1.463893130000 4.172953000000
H 10.091633740000 1.636106870000 4.172953000000
O 10.850000000000 1.550000000000 7.869262000000
H 11.352480540000 0.975502760000 7.272953000000
H 10.347519460000 2.124497240000 7.272953000000
O 10.850000000000 1.550000000000 10.969262000000
H 10.714690840000 2.301149250000 10.372953000000
H 10.985309160000 0.798850750000 10.372953000000
O 10.850000000000 1.550000000000 14.069262000000
H 11.599009820000 1.403309650000 13.472953000000
H 10.100990180000 1.696690350000 13.472953000000
O 10.850000000000 1.550000000000 17.169262000000
H 10.773439490000 2.309389400000 16.572953000000
H 10.926560510000 0.790610600000 16.572953000000
O 10.850000000000 4.650000000000 1.669262000000
H 11.612286770000 4.688113750000 1.072953000000
H 10.087713230000 4.611886250000 1.072953000000
O 10.850000000000 4.650000000000 4.769262000000
H 10.911119860000 3.889212160000 4.172953000000
H 10.788880140000 5.410787840000 4.172953000000
O 10.850000000000 4.650000000000 7.869262000000
H 11.178853130000 5.338759310000 7.272953000000
H 10.521146870000 3.961240690000 7.272953000000
O 10.850000000000 4.650000000000 10.969262000000
H 10.542124050000 5.348388270000 10.372953000000
H 11.157875950000 3.951611730000 10.372953000000
O 10.850000000000 4.650000000000 14.069262000000
H 11.491017090000 5.064283550000 13.472953000000
H 10.208982910000 4.235716450000 13.472953000000
O 10.850000000000 4.650000000000 17.169262000000
H 10.539460470000 5.347207980000 16.572953000000
H 11.160539530000 3.952792020000 16.572953000000
O 10.850000000000 7.750000000000 1.669262000000
H 10.216885830000 7.323736920000 1.072953000000
H 11.483114170000 8.176263080000 1.072953000000
O 10.850000000000 7.750000000000 4.769262000000
H 10.526325460000 7.058791950000 4.172953000000
H 11.173674540000 8.441208050000 4.172953000000
O 10.850000000000 7.750000000000 7.869262000000
H 11.011521140000 8.495952210000 7.272953000000
H 10.688478860000 7.004047790000 7.272953000000
O 10.850000000000 7.750000000000 10.969262000000
H 11.140890420000 7.044367990000 10.372953000000
H 10.559109580000 8.455632010000 10.372953000000
O 10.850000000000 7.750000000000 14.069262000000
H 10.087944570000 7.707511180000 13.472953000000
H 11.612055430000 7.792488820000 13.472953000000
O 10.850000000000 7.750000000000 17.169262000000
H 10.087804720000 7.789901510000 16.572953000000
H 11.612195280000 7.710098490000 16.572953000000
O 10.850000000000 10.850000000000 1.669262000000
H 11.343425590000 11.432292850000 1.072953000000
H 10.356574410000 10.267707150000 1.072953000000
O 10.850000000000 10.850000000000 4.769262000000
H 10.095516750000 10.965277050000 4.172953000000
H 11.604483250000 10.734722950000 4.172953000000
O 10.850000000000 10.850000000000 7.869262000000
H 10.311820620000 11.391199340000 7.272953000000
H 11.388179380000 10.308800660000 7.272953000000
O 10.850000000000 10.850000000000 10.969262000000
H 10.108789500000 10.667953960000 10.372953000000
H 11.591210500000 11.032046040000 10.372953000000
O 10.850000000000 10.850000000000 14.069262000000
H 11.243146280000 10.195806010000 13.472953000000
H 10.456853720000 11.504193990000 13.472953000000
O 10.850000000000 10.850000000000 17.169262000000
H 11.104430080000 10.130417410000 16.572953000000
H 10.595569920000 11.569582590000 16.572953000000
O 10.850000000000 13.950000000000 1.669262000000
H 11.560151090000 14.229676960000 1.072953000000
H 10.139848910000 13.670323040000 1.072953000000
O 10.850000000000 13.950000000000 4.769262000000
H 11.133087940000 13.241201730000 4.172953000000
H 10.566912060000 14.658798270000 4.172953000000
O 10.850000000000 13.950000000000 7.869262000000
H 10.108893080000 13.767532720000 7.272953000000
H 11.591106920000 14.132467280000 7.272953000000
O 10.850000000000 13.950000000000 10.969262000000
H 10.452830560000 13.298240680000 10.372953000000
H 11.247169440000 14.601759320000 10.372953000000
O 10.850000000000 13.950000000000 14.069262000000
H 11.544387780000 14.266795490000 13.472953000000
H 10.155612220000 13.633204510000 13.472953000000
O 10.850000000000 13.950000000000 17.169262000000
H 11.394775610000 13.415441010000 16.572953000000
H 10.305224390000 14.484558990000 16.572953000000
O 10.850000000000 17.050000000000 1.669262000000
H 11.044090880000 17.788148020000 1.072953000000
H 10.655909120000 16.311851980000 1.072953000000
O 10.850000000000 17.050000000000 4.769262000000
H 10.291671420000 16.529612680000 4.172953000000
H 11.408328580000 17.570387320000 4.172953000000
O 10.850000000000 17.050000000000 7.869262000000
H 11.097732270000 16.328084150000 7.272953000000
H 10.602267730000 17.771915850000 7.272953000000
O 10.850000000000 17.050000000000 10.969262000000
H 11.274727220000 16.415854470000 10.372953000000
H 10.425272780000 17.684145530000 10.372953000000
O 10.850000000000 17.050000000000 14.069262000000
H 11.472254320000 17.491965300000 13.472953000000
H 10.227745680000 16.608034700000 13.472953000000
O 10.850000000000 17.050000000000 17.169262000000
H 10.245533710000 17.515998150000 16.572953000000
H 11.454466290000 16.584001850000 16.572953000000
O 13.950000000000 1.550000000000 1.669262000000
H 13.527005760000 0.914697200000 1.072953000000
H 14.372994240000 2.185302800000 1.072953000000
O 13.950000000000 1.550000000000 4.769262000000
H 14.359130060000 2.194318530000 4.172953000000
H 13.540869940000 0.905681470000 4.172953000000
O 13.950000000000 1.550000000000 7.869262000000
H 13.745980880000 2.285465820000 7.272953000000
H 14.154019120000 0.814534180000 7.272953000000
O 13.950000000000 1.550000000000 10.969262000000
H 14.634973890000 1.886666810000 10.372953000000
H 13.265026110000 1.213333190000 10.372953000000
O 13.950000000000 1.550000000000 14.069262000000
H 13.563066080000 0.892112540000 13.472953000000
H 14.336933920000 2.207887460000 13.472953000000
O 13.950000000000 1.550000000000 17.169262000000
H 14.619283780000 1.916869180000 16.572953000000
H 13.280716220000 1.183130820000 16.572953000000
O 13.950000000000 4.650000000000 1.669262000000
H 13.902293310000 5.411746570000 1.072953000000
H 13.997706690000 3.888253430000 1.072953000000
O 13.950000000000 4.650000000000 4.769262000000
H 13.377632380000 4.145094980000 4.172953000000
H 14.522367620000 5.154905020000 4.172953000000
O 13.950000000000 4.650000000000 7.869262000000
H 13.588077480000 5.321971620000 7.272953000000
H 14.311922520000 3.978028380000 7.272953000000
O 13.950000000000 4.650000000000 10.969262000000
H 14.574759550000 4.211583220000 10.372953000000
H 13.325240450000 5.088416780000 10.372953000000
O 13.950000000000 4.650000000000 14.069262000000
H 13.195314060000 4.536057470000 13.472953000000
H 14.704685940000 4.763942530000 13.472953000000
O 13.950000000000 4.650000000000 17.169262000000
H 14.679712610000 4.426274090000 16.572953000000
H 13.220287390000 4.873725910000 16.572953000000
O 13.950000000000 7.750000000000 1.669262000000
H 14.213938640000 8.466149540000 1.072953000000
H 13.686061360000 7.033850460000 1.072953000000
O 13.950000000000 7.750000000000 4.769262000000
H 13.404182080000 8.283494670000 4.172953000000
H 14.495817920000 7.216505330000 4.172953000000
O 13.950000000000 7.750000000000 7.869262000000
H 14.523216570000 8.253941000000 7.272953000000
H 13.376783430000 7.246059000000 7.272953000000
O 13.950000000000 7.750000000000 10.969262000000
H 13.671423820000 8.460583620000 10.372953000000
H 14.228576180000 7.039416380000 10.372953000000
O 13.950000000000 7.750000000000 14.069262000000
H 13.430226620000 7.191099820000 13.472953000000
H 14.469773380000 8.308900180000 13.472953000000
O 13.950000000000 7.750000000000 17.169262000000
H 13.624048580000 7.059862740000 16.572953000000
H 14.275951420000 8.440137260000 16.572953000000
O 13.950000000000 10.850000000000 1.669262000000
H 13.896570930000 10.088633400000 1.072953000000
H 14.003429070000 11.611366600000 1.072953000000
O 13.950000000000 10.850000000000 4.769262000000
H 14.062465610000 11.604907450000 4.172953000000
H 13.837534390000 10.095092550000 4.172953000000
O 13.950000000000 10.850000000000 7.869262000000
H 14.703316630000 10.972669580000 7.272953000000
H 13.196683370000 10.727330420000 7.272953000000
O 13.950000000000 10.850000000000 10.969262000000
H 13.238359460000 10.574134980000 10.372953000000
H 14.661640540000 11.125865020000 10.372953000000
O 13.950000000000 10.850000000000 14.069262000000
H 13.192681670000 10.755117370000 13.472953000000
H 14.707318330000 10.944882630000 13.472953000000
O 13.950000000000 10.850000000000 17.169262000000
H 14.528435480000 11.347941930000 16.572953000000
H 13.371564520000 10.352058070000 16.572953000000
O 13.950000000000 13.950000000000 1.669262000000
H 14.467885840000 14.510649650000 1.072953000000
H 13.432114160000 13.389350350000 1.072953000000
O 13.950000000000 13.950000000000 4.769262000000
H 14.001305100000 13.188487320000 4.172953000000
H 13.898694900000 14.711512680000 4.172953000000
O 13.950000000000 13.950000000000 7.869262000000
H 13.316847670000 13.523793600000 7.272953000000
H 14.583152330000 14.376206400000 7.272953000000
O 13.950000000000 13.950000000000 10.969262000000
H 13.974370080000 14.712849830000 10.372953000000
H 13.925629920000 13.187150170000 10.372953000000
O 13.950000000000 13.950000000000 14.069262000000
H 13.251343210000 13.642733900000 13.472953000000
H 14.648656790000 14.257266100000 13.472953000000
O 13.950000000000 13.950000000000 17.169262000000
H 13.253962980000 14.263155280000 16.572953000000
H 14.646037020000 13.636844720000 16.572953000000
O 13.950000000000 17.050000000000 1.669262000000
H 14.472129930000 17.606699290000 1.072953000000
H 13.427870070000 16.493300710000 1.072953000000
O 13.950000000000 17.050000000000 4.769262000000
H 14.655442590000 17.341349490000 4.172953000000
H 13.244557410000 16.758650510000 4.172953000000
O 13.950000000000 17.050000000000 7.869262000000
H 14.613896690000 16.673469850000 7.272953000000
H 13.286103310000 17.426530150000 7.272953000000
O 13.950000000000 17.050000000000 10.969262000000
H 14.147168810000 17.787331830000 10.372953000000
H 13.752831190000 16.312668170000 10.372953000000
O 13.950000000000 17.050000000000 14.069262000000
H 14.293446470000 17.731599810000 13.472953000000
H 13.606553530000 16.368400190000 13.472953000000
O 13.950000000000 17.050000000000 17.169262000000
H 14.713192780000 17.041600740000 16.572953000000
H 13.186807220000 17.058399260000 16.572953000000
O 17.050000000000 1.550000000000 1.669262000000
H 17.635935980000 2.039093860000 1.072953000000
H 16.464064020000 1.060906140000 1.072953000000
O 17.050000000000 1.550000000000 4.769262000000
H 16.286883650000 1.563682280000 4.172953000000
H 17.813116350000 1.536317720000 4.172953000000
O 17.050000000000 1.550000000000 7.869262000000
H 16.458121830000 2.031885880000 7.272953000000
H 17.641878170000 1.068114120000 7.272953000000
O 17.050000000000 1.550000000000 10.969262000000
H 17.718974270000 1.182566750000 10.372953000000
H 16.381025730000 1.917433250000 10.372953000000
O 17.050000000000 1.550000000000 14.069262000000
H 17.794456540000 1.381719770000 13.472953000000
H 16.305543460000 1.718280230000 13.472953000000
O 17.050000000000 1.550000000000 17.169262000000
H 16.388091410000 1.930014200000 16.572953000000
H 17.711908590000 1.169985800000 16.572953000000
O 17.050000000000 4.650000000000 1.669262000000
H 16.584319940000 4.045288620000 1.072953000000
H 17.515680060000 5.254711380000 1.072953000000
O 17.050000000000 4.650000000000 4.769262000000
H 17.457927770000 5.295080380000 4.172953000000
H 16.642072230000 4.004919620000 4.172953000000
O 17.050000000000 4.650000000000 7.869262000000
H 17.337201810000 3.942858650000 7.272953000000
H 16.762798190000 5.357141350000 7.272953000000
O 17.050000000000 4.650000000000 10.969262000000
H 17.410680080000 3.977360680000 10.372953000000
H 16.689319920000 5.322639320000 10.372953000000
O 17.050000000000 4.650000000000 14.069262000000
H 16.333307460000 4.912460630000 13.472953000000
H 17.766692540000 4.387539370000 13.472953000000
O 17.050000000000 4.650000000000 17.169262000000
H 17.174236300000 3.896940170000 16.572953000000
H 16.925763700000 5.403059830000 16.572953000000
O 17.050000000000 7.750000000000 1.669262000000
H 17.161977270000 6.995019960000 1.072953000000
H 16.938022730000 8.504980040000 1.072953000000
O 17.050000000000 7.750000000000 4.769262000000
H 16.645354840000 8.397144550000 4.172953000000
H 17.454645160000 7.102855450000 4.172953000000
O 17.050000000000 7.750000000000 7.869262000000
H 17.136409450000 8.508331840000 7.272953000000
H 16.963590550000 6.991668160000 7.272953000000
O 17.050000000000 7.750000000000 10.969262000000
H 17.381014530000 7.062276830000 10.372953000000
H 16.718985470000 8.437723170000 10.372953000000
O 17.050000000000 7.750000000000 14.069262000000
H 17.019274050000 8.512620280000 13.472953000000
H 17.080725950000 6.987379720000 13.472953000000
O 17.050000000000 7.750000000000 17.169262000000
H 17.805523520000 7.858249640000 16.572953000000
H 16.294476480000 7.641750360000 16.572953000000
O 17.050000000000 10.850000000000 1.669262000000
H 17.153904680000 11.606133310000 1.072953000000
H 16.946095320000 10.093866690000 1.072953000000
O 17.050000000000 10.850000000000 4.769262000000
H 17.458437510000 10.205242240000 4.172953000000
H 16.641562490000 11.494757760000 4.172953000000
O 17.050000000000 10.850000000000 7.869262000000
H 16.358752030000 10.526410720000 7.272953000000
H 17.741247970000 11.173589280000 7.272953000000
O 17.050000000000 10.850000000000 10.969262000000
H 16.344844950000 11.142044740000 10.372953000000
H 17.755155050000 10.557955260000 10.372953000000
O 17.050000000000 10.850000000000 14.069262000000
H 17.724584150000 10.492970600000 13.472953000000
H 16.375415850000 11.207029400000 13.472953000000
O 17.050000000000 10.850000000000 17.169262000000
H 16.331708800000 11.108053340000 16.572953000000
H 17.768291200000 10.591946660000 16.572953000000
O 17.050000000000 13.950000000000 1.669262000000
H 17.407938350000 13.275897700000 1.072953000000
H 16.692061650000 14.624102300000 1.072953000000
O 17.050000000000 13.950000000000 4.769262000000
H 17.507263270000 13.338899300000 4.172953000000
H 16.592736730000 14.561100700000 4.172953000000
O 17.050000000000 13.950000000000 7.869262000000
H 17.228533210000 14.692064460000 7.272953000000
H 16.871466790000 13.207935540000 7.272953000000
O 17.050000000000 13.950000000000 10.969262000000
H 16.715232530000 14.635904160000 10.372953000000
H 17.384767470000 13.264095840000 10.372953000000
O 17.050000000000 13.950000000000 14.069262000000
H 17.049869670000 13.186761010000 13.472953000000
H 17.050130330000 14.713238990000 13.472953000000
O 17.050000000000 13.950000000000 17.169262000000
H 17.812714170000 13.921700520000 16.572953000000
H 16.287285830000 13.978299480000 16.572953000000
O 17.050000000000 17.050000000000 1.669262000000
H 16.365167850000 17.386955040000 1.072953000000
H 17.734832150000 16.713044960000 1.072953000000
O 17.050000000000 17.050000000000 4.769262000000
H 16.556385690000 16.467867120000 4.172953000000
H 17.543614310000 17.632132880000 4.172953000000
O 17.050000000000 17.050000000000 7.869262000000
H 16.756169720000 17.754412900000 7.272953000000
H 17.343830280000 16.345587100000 7.272953000000
O 17.050000000000 17.050000000000 10.969262000000
H 17.804491530000 16.934777160000 10.372953000000
H 16.295508470000 17.165222840000 10.372953000000
O 17.050000000000 17.050000000000 14.069262000000
H 16.650113920000 17.700096070000 13.472953000000
H 17.449886080000 16.399903930000 13.472953000000
O 17.050000000000 17.050000000000 17.169262000000
H 16.582553020000 16.446653430000 16.572953000000
H 17.517446980000 17.653346570000 16.572953000000
